141            
#CARTESIAN         
Al  0.000000000 0.000000000 0.000000000
Al  2.879300117 4.987093925 0.000000000
Al  2.879300117 1.662364691 8.931533444
Al  0.000000000 6.649458765 8.931533444
Al  0.000000000 3.324729383 17.863066888
Al  2.879300117 8.311823605 17.863066888
Ca  2.879300117 1.662364691 0.571796741
Ca  0.000000000 6.649458765 0.571796741
Ca  0.000000000 3.324729085 26.222802443
Ca  2.879300117 8.311823011 26.222802443
Ca  0.000000000 3.324729383 9.503329736
Ca  2.879300117 8.311823605 9.503329736
Ca  0.000000000 0.000000000 8.359736354
Ca  2.879300117 4.987093925 8.359736354
Ca  0.000000000 0.000000000 18.434862381
Ca  2.879300117 4.987093925 18.434862381
Ca  2.879299946 1.662364543 17.291269797
Ca  0.000000000 6.649458171 17.291269797
O   4.482782423 4.714299803 0.999706522
O   1.603482306 9.701393729 0.999706522
O   4.155117929 0.272794029 25.794892911
O   1.275817812 5.259888048 25.794892911
O   5.193105558 1.525053277 0.999706522
O   2.313805098 6.512147054 0.999706522
O   3.444794451 3.462040500 25.794892911
O   0.565494333 8.449134723 25.794892911
O   1.841312317 3.734834622 0.999706522
O   4.720612263 8.721928250 0.999706522
O   1.037987629 1.252259303 25.794892911
O   3.917287747 6.239353526 25.794892911
O   4.482782423 1.389570569 9.931240066
O   1.603482306 6.376664643 9.931240066
O   1.275817812 1.935158665 7.931826822
O   4.155117929 6.922252888 7.931826822
O   2.313805441 3.187417968 9.931240066
O   5.193105558 8.174511894 9.931240066
O   3.444794794 0.137311312 7.931826822
O   0.565495020 5.124405043 7.931826822
O   1.841312488 0.410105351 9.931240066
O   4.720612606 5.397199165 9.931240066
O   3.917287747 2.914623846 7.931826822
O   1.037987286 7.901717771 7.931826822
O   1.603482134 3.051935260 18.862773510
O   4.482782423 8.039028889 18.862773510
O   4.155117929 3.597523208 16.863360266
O   1.275817812 8.584617133 16.863360266
O   5.193105902 4.849782511 18.862773510
O   2.313805784 9.836876734 18.862773510
O   0.565494505 1.799675957 16.863360266
O   3.444794451 6.786769883 16.863360266
O   4.720612606 2.072469931 18.862773510
O   1.841312832 7.059564005 18.862773510
O   1.037987629 4.576988686 16.863360266
O   3.917287747 9.564082611 16.863360266
O   2.879300117 1.662364691 3.092632645
O   0.000000000 6.649458765 3.092632645
O   0.000000000 3.324729085 23.701967287
O   2.879300117 8.311823011 23.701967287
O   0.000000000 3.324729383 12.024165690
O   2.879300117 8.311823605 12.024165690
O   0.000000000 0.000000000 5.838900400
O   2.879300117 4.987093925 5.838900400
O   0.000000000 0.000000000 20.955699133
O   2.879300117 4.987093925 20.955699133
O   2.879299946 1.662364543 14.770433045
O   0.000000000 6.649458171 14.770433045
O   2.879300117 4.987093925 14.699517787
O   2.879300117 1.662364691 23.631050432
O   2.879300117 8.311823605 5.767984742
O   3.902891260 5.895244017 12.783703831
O   1.581023470 5.419474782 12.783703831
O   3.153985622 3.646562977 12.783703831
O   3.902891260 2.570514337 21.715236476
O   1.581023642 2.094745697 21.715236476
O   3.153985279 0.321833855 21.715236476
O   3.902891260 9.219973102 3.852170786
O   1.581023470 8.744204462 3.852170786
O   3.153985279 6.971292657 3.852170786
H   4.425484110 4.413578076 1.787199698
H   1.546183993 9.400672002 1.787199698
H   4.212416242 0.573515812 25.007400235
H   1.333116125 5.560609774 25.007400235
H   5.482187550 1.625792645 1.787199698
H   2.602887433 6.612886422 1.787199698
H   3.155712802 3.361301429 25.007400235
H   0.276412685 8.348395355 25.007400235
H   1.609528810 3.934817278 1.787199698
H   4.488828927 8.921911204 1.787199698
H   1.269771394 1.052276796 25.007400235
H   4.149071425 6.039370573 25.007400235
H   4.425484110 1.088848842 10.718732742
H   1.546183993 6.075942916 10.718732742
H   1.333115953 2.235880392 7.144333347
H   4.212416242 7.222974020 7.144333347
H   2.602887433 3.288157336 10.718732742
H   5.482187550 8.275251262 10.718732742
H   3.155713146 0.036572035 7.144333347
H   0.276413371 5.023665675 7.144333347
H   1.609528810 0.610087859 10.718732742
H   4.488828927 5.597181524 10.718732742
H   4.149071425 2.714641487 7.144333347
H   1.269771308 7.701735413 7.144333347
H   1.546184164 2.751213534 19.650266186
H   4.425484110 7.738307756 19.650266186
H   4.212415899 3.898245232 16.075865992
H   1.333115438 8.885339454 16.075865992
H   5.482187550 4.950521879 19.650266186
H   2.602887433 9.937616102 19.650266186
H   0.276412771 1.698936738 16.075865992
H   3.155712802 6.686030515 16.075865992
H   4.488828927 2.272452438 19.650266186
H   1.609528810 7.259546364 19.650266186
H   1.269771479 4.377006030 16.075865992
H   4.149071425 9.364100253 16.075865992
H   1.879300117 1.662364691 3.092632645
H   2.879300117 1.662364691 4.092632645
H   1.000000000 6.649458765 3.092632645
H   0.000000000 6.649458765 4.092632645
H   1.000000000 0.000000000 5.838900400
H   0.000000000 0.000000000 4.838900400
H   1.879300117 4.987093925 5.838900400
H   2.879300117 4.987093925 4.838900400
H   1.000000000 3.324729383 12.024165690
H   0.000000000 3.324729383 13.024165690
H   1.879300117 8.311823605 12.024165690
H   2.879300117 8.311823605 13.024165690
H   1.879299946 1.662364543 14.770433045
H   2.879299946 1.662364543 13.770433045
H   1.000000000 6.649458171 14.770433045
H   0.000000000 6.649458171 13.770433045
H   1.000000000 0.000000000 20.955699133
H   0.000000000 0.000000000 21.955699133
H   1.879300117 4.987093925 20.955699133
H   2.879300117 4.987093925 21.955699133
H   1.000000000 3.324729085 23.701967287
H   0.000000000 3.324729085 22.701967287
H   1.879300117 8.311823011 23.701967287
H   2.879300117 8.311823011 22.701967287
S   2.879300117 4.987093925 13.276724024
S   2.879300117 1.662364691 22.208257468
S   2.879300117 8.311823605 4.345190979
