     238
#CARTESIAN
 Ca        -4.2856680752        7.9487749329       18.6348235619
 Ca         4.2727078657       11.3844898774       24.0123336010
  O        -1.3798601291        6.3103461640       10.9850728051
  O        -1.2348816902        6.1957796459       15.5771227964
  O        -1.1699138714        5.7336782668       21.3037978460
  O         4.7916760997       10.8019083623       20.2147453190
  H         4.2668324295       11.4561882131       20.7067916217
  O        -4.7898976531        8.3696710113       22.6446738552
  H        -4.2402285205        7.7084715670       22.1988062777
  O         4.8725588684       11.0446192395       17.3008548456
  H         4.3211724756       11.7202154817       16.8740134907
  O         3.6329826138       13.0285585494       22.1755445741
  H         4.0994281129       13.3712678404       21.3809656344
  H         2.6661291808       13.2594920007       22.0202456786
  O        -3.5030260312        5.9009921783       19.9273589082
  H        -3.2869878474        5.4183100278       19.1060648645
  H        -2.6329956709        5.9021828052       20.4328709977
  O        -3.5655453188        6.2479283248       16.9517629736
  H        -4.0840479843        5.7889980080       16.2482043085
  H        -2.6405897810        6.2594249984       16.5664242653
  O         4.6817386233        5.8522483751        8.7062942786
  H         4.5725090099        4.8940698027        8.4763814447
  H         3.8558156069        6.3010765664        8.3823436073
  O         4.6287209975        5.1914319130       18.9475456736
  H         3.8330424874        5.7845509540       18.8830001208
  H         5.1601013720        5.5759647231       19.6653460259
 Al        -5.5981513741        9.5829379460       21.4104489698
 Al        -5.6535576607        9.6857258540        5.3021087634
  S         0.0043214495        6.7111975348       10.5363721551
  S         0.1216656129        6.6476361127       16.0419823965
  S        -0.1091958060        6.6836171172       21.7006757374
  O        -0.0055136245        6.9005192348        9.0311792333
  O         0.1182819027        6.7892264192       17.5367671282
  O        -0.1198979596        6.8997133154       23.2029170742
 Ca        -4.6245034728       11.5624561644       18.8585926795
 Ca         4.5697222254        7.7456013276       24.0832725743
  O         1.0486958053        5.7526609872       10.9497465804
  O         1.2053632043        5.7515713342       15.5730453815
  O         1.2775096072        6.2523497788       21.2948693560
  O         5.0657145314        8.1794658967       20.2061528179
  H         4.5699965549        7.4989758625       20.6897008149
  O         4.9373800284        8.3944380910       17.2197388481
  H         4.5272880848        7.6699735455       16.7084548298
  O         3.5918646392        6.0252722096       22.5780261849
  H         2.6640333861        6.1422781679       22.1929185353
  H         3.6910115502        5.0594855556       22.6318668223
  O        -3.6827197546       13.1007637529       20.4967335276
  H        -2.7381676386       13.1252202397       20.8661394158
  H        -4.0170538976       14.0084904738       20.5789141030
  O        -2.6340992721       12.7615884434       16.4336171595
  H        -2.2460719555       12.1636009572       17.1441023391
  H        -2.3094699581       13.6536496180       16.6444132179
  O         1.8491319299        8.5530188310       13.2940664204
  H         1.3045923245        8.2615098985       14.0797893956
  H         1.2791706142        8.3084666980       12.5061106857
  O        -1.7644384324       11.0550872498        7.9829454685
  H        -1.1337699717       11.5829769939        7.4167090910
  H        -1.3418033151       11.1933287906        8.8777981170
  O         1.9825445682        8.0612562061       24.3448513110
  H         1.8753123200        9.0452950018       24.2417932779
  H         1.2108391032        7.6400461869       23.8522261579
  O        -1.9848856776       11.2858619806       18.5549066841
  H        -1.8223202401       10.3082093330       18.5581643499
  H        -1.2394826357       11.7178318773       19.0813377729
 Ca         3.4346997050        9.4703940361       18.7549815025
 Ca        -3.4764159716        9.8545191127       24.0988992145
  O         0.2970425909        8.0866492164       11.1679265952
  O         0.3505254508        8.0702895037       15.4549415416
  O        -0.3650263736        8.0446075107       21.0279205560
  O         4.0851463310        9.4542947087       22.5433958214
  H         3.2480209230        9.4131111703       22.0307396211
  O        -1.8850827580        9.8270438976       22.2784220152
  H        -1.3839022920        9.0364783769       21.9238622200
  H        -1.1786416817       10.5287039385       22.1923060418
  O         1.8601608357        9.5734187466       20.6255348005
  H         1.3783930864       10.3732708764       20.9793032588
  H         1.1420634416        8.8866292765       20.7119210327
  O         1.8183977551        9.7051165867       16.8991629428
  H         1.2381465681       10.4479998330       17.1356022539
  H         1.2319066089        9.0314986854       16.4272805480
  O        -2.5862569056        7.0776461123       13.3610446169
  H        -1.9825757709        6.7978509063       14.1009905025
  H        -2.1111145378        6.7791577782       12.5381245683
  O         2.4525197216       12.4035732763        8.1931744528
  H         1.6902952753       12.5481229257        7.5656139349
  H         2.0326787073       12.6740990412        9.0578447088
  O        -2.4649234869        7.1976320270       24.4546207377
  H        -1.6039424194        6.9696874288       23.9858772534
  O         2.4002592900       12.1076775669       18.5717169205
  H         2.3406319099       12.4241470345       17.6397537095
  H         1.5398546482       12.3648866872       19.0155387591
 Ca         3.4218061631        9.9997498359        8.0192242588
 Ca        -3.4628723940        9.6197387427       13.3522709177
  O         0.2958209176       11.3570543228       21.8828244535
  O         0.3015503074       11.3804908020        4.6948506636
  O        -0.3591943231       11.4172802690       10.2857264972
  O         4.0863943227       10.0113349409       11.8061299852
  H         3.2464315967       10.0474560179       11.2973913107
  O         4.0531674374        9.8836451405       14.8890059015
  H         3.2259386197        9.8951838818       15.4073487287
  O        -1.8880879051        9.6330284009       11.5144501807
  H        -1.3817294044       10.4239076419       11.1676123237
  H        -1.1818823405        8.9292985456       11.4410297800
  O         1.8582642479        9.8872631923        9.9081919115
  H         1.3798818778        9.0834002478       10.2566062534
  H         1.1355498690       10.5708957891        9.9933923895
  O        -1.7573665715        9.7014660002       15.1764510063
  H        -1.3013896183       10.5449685701       15.0137923392
  H        -1.0175542309        9.0259386754       15.2778314182
  O         1.8158204774        9.7607322444        6.1387974649
  H         1.2571942954        8.9917747926        6.3428144515
  H         1.2150310608       10.4232337378        5.6723846379
  O        -2.5879553537       12.3974976726       24.1170494824
  H        -1.9889663036       12.6764544629       24.8616366024
  H        -2.1090098725       12.6951980537       23.2979966327
  O         2.4464049720        7.0628840567       18.9490822976
  H         1.6870443043        6.9082195000       18.3200981327
  H         2.0255967205        6.7944546371       19.8140388005
  O        -2.4601838909       12.2255926776       13.6838058749
  H        -2.3478088807       12.4808875026       14.6313317815
  H        -1.6026673611       12.4620363074       13.2114660099
  O         2.3956373986        7.3261676985        7.8497217016
  H         2.3129627719        7.0201881311        6.9156343770
  H         1.5324998738        7.0856792933        8.2996838115
 Al        -5.6034864418        9.8835435702       10.6679567456
 Al        -5.6424448327        9.7856965099       16.0417303751
  S         0.0126152914       12.7441129693       21.2718011860
  S         0.0985260177       12.7985751627        5.3017874936
  S        -0.1032705700       12.7837643264       10.9480498105
  O         0.0014375947       12.5746977893       19.7638715065
  O         0.1182328246       12.6371184216        6.7945178441
  O        -0.1159285938       12.5749968623       12.4514414406
 Ca        -4.2960157259       11.5172184321        7.9000544771
 Ca         4.2800735432        8.0812227255       13.2753029575
  O        -1.3649280873       13.1556727613       21.7263714762
  O        -1.2599891297       13.2736370394        4.8646991015
  O        -1.1630163672       13.7316894265       10.5427121476
  O         4.7853702565        8.6669550775        9.4701873800
  H         4.2611892647        8.0096910012        9.9586776288
  O         4.8560390055        8.4239971680        6.5539523260
  H         4.2930345391        7.7533923378        6.1351420471
  O         3.6260386319        6.4371998837       11.4517167586
  H         4.0865527496        6.1023740958       10.6489717240
  H         2.6606070835        6.2034180529       11.2993518273
  O        -3.5072086488       13.5705147639        9.2044890373
  H        -3.2921611329       14.0508501466        8.3814589738
  H        -2.6350305511       13.5699320124        9.7070419350
  O         3.7451733834        6.5089190906       15.0791944494
  H         4.3543049570        5.7488583158       15.0898017212
  H         2.8175417954        6.1778479307       15.2750901608
  O        -3.5743664612       13.2365242292        6.2419246944
  H        -4.0980185211       13.6921766816        5.5404055779
  H        -2.6515766398       13.2209748786        5.8494498311
  O        -4.7408156738        5.6214149450       24.0178676737
  H        -3.9170814256        6.1798052727       24.1413132196
  H        -4.6805792210        5.3437025395       23.0876982288
  O        -6.5098622816       13.6152530243       19.4183583358
  H        -6.6317875002       14.5717009306       19.1864449846
  H        -7.3338294682       13.1589288011       19.1052910472
  O        -4.6790000200        5.3644904424       14.4369424529
  H        -4.0049608936        5.8894462920       13.9311896603
  H        -4.5796353502        4.4374807410       14.1218938223
  O        -6.5918210152       14.2828219933        8.2236821494
  H        -6.0630071471       13.8875963350        8.9378197638
 Ca        -4.6394179440        7.8987483028        8.1059854756
 Ca         4.5794886998       11.7230778644       13.3442928399
  O         1.0609177896       13.6892080660       21.7043737064
  O         1.1817085317       13.6874241569        4.8205306155
  O         1.2824535675       13.2150447551       10.5393623001
  O         5.0500592774       11.2892263697        9.4642587118
  H         4.5630987151       11.9708041074        9.9555836583
  O        -5.0197852397        8.4698025398       11.8533575400
  H        -4.6010301886        7.7292211636       11.3811050753
  O         4.9190538978       11.0710840445        6.4775887837
  H         4.5062041909       11.7936756645        5.9658760214
  O        -4.9708006793        8.4885301424       14.7944694889
  H        -4.6071712149        7.7129684700       15.2490651900
  O         3.6062629025       13.4306646942       11.8212377399
  H         2.6768397984       13.3165754182       11.4395933455
  H         3.7104129518       14.3963444045       11.8681079618
  O        -3.6732609356        6.3190323406        9.6808724511
  H        -2.7417995996        6.3035632046       10.0797648601
  H        -4.0181935530        5.4175933785        9.7846072015
  O         2.6324913912       12.8225857911       15.8153640423
  H         2.2340467949       12.2448025978       15.1000430822
  H         2.2833794552       13.7155129008       15.6469949135
  O        -2.7901058305        6.6700271344        5.7378721327
  H        -2.3354416497        7.2594148415        6.4161452022
  H        -2.5113587381        5.7646282357        5.9579574870
  O         1.8262156892       10.8894826218       24.0291657781
  H         1.2762176961       11.1892564296       24.8080973130
  H         1.2653508233       11.1342854587       23.2349579863
  O         1.9790175878       11.4077371722       13.6220135976
  H         1.8797592960       10.4244058242       13.5137588045
  H         1.2118704629       11.8280469110       13.1224660752
  O        -4.0839182046        9.8201409042       17.1883946983
  O        -4.0590419378        9.7135195850       20.2690725743
  O        -1.7615458955        8.3761104512       18.7242385744
  O         4.0474201059        9.5889035710       25.6175155102
  O         3.7349654322       12.9493885453       25.8282295389
  O        -5.0217281155       10.9983542980       22.5967591861
  O        -4.9771636374       10.9883842691       25.5409588116
  O        -4.6805708109       14.1268578840       25.2071647839
  O        -4.0994710052        9.6526738222        6.4545729160
  O         2.5211693733        6.6530220459       26.5762697969
  O        -4.9142155496        8.3611181495       25.5988067908
  O        -1.8076615023        9.7627933708       25.9416614337
  H        -2.3710958515        6.9266230605       25.3981294345
  O        -4.0696358943        9.7535298082        9.5212224606
  O        -4.7918660149       11.0955726573       11.9041419523
  O        -4.9084244999       11.1149829674       14.8610942188
  H        -7.3844983383       13.6886046238        8.1459472965
  O        -1.9881525163        8.1720634025        7.7888524908
  O        -4.7068074638       13.8502701420       13.2578308630
  H        -3.2480476593        9.8182273460       16.6837225590
  H        -3.2385861998        9.8387749927       20.7932992857
  H        -1.1321683200        7.8465439441       18.1577225401
  H        -1.3381674816        8.2417106633       19.6197515253
  H         3.2187651891        9.5787605387       26.1342319741
  H         2.8050889472       13.2789777910       26.0158080924
  H         4.3422331931       13.7111396439       25.8446423155
  H        -4.6028793951       11.7385334630       22.1223591167
  H        -4.6159337958       11.7619793861       26.0003163959
  H        -4.0092529408       13.6063595319       24.6943975278
  H        -4.5971300581       15.0541853934       24.8882303098
  H        -3.2653275135        9.6525504514        5.9460993485
  H         2.1737077881        7.2344569953       25.8373375863
  H         2.1616644538        5.7668222678       26.3955586029
  H        -4.3771897916        7.7142500808       26.0850329921
  H        -1.3633317926        8.9116911729       25.7853890170
  H        -1.0581077757       10.4315270530       26.0307045632
  H        -3.2460102991        9.6262139857       10.0404410927
  H        -4.2430447231       11.7574510697       11.4584455209
  H        -4.3640972008       11.7582692999       15.3431803529
  H        -1.2478867555        7.7439303108        8.3239720129
  H        -1.8282638731        9.1508085065        7.7928988746
  H        -4.6367587278       14.1220243551       12.3264091709
  H        -3.8897498179       13.2839155930       13.3887656295