152
 i =      172, E =     -4819.5362736558 , surface protonation
Ca   15.089241   -4.216240    7.310653
Ca    2.183444   -1.518616    5.367562
Si   14.796841   -4.253757    4.250134
Si    2.152832   -5.165905    2.121427
Si    4.355186   -4.314180    4.099990
 O    1.049286   -4.216312    2.911541
 O   13.294396   -4.175078    3.574753
 O   15.014581   -5.574717    5.150364
 O   15.064885   -2.937290    5.150796
 O    5.754165   -1.047829    2.879202
 H    6.240852   -1.701612    2.322507
 O    2.172698   -1.659384    2.819633
 H    1.851230   -2.594117    2.792231
 H    3.116109   -1.717715    2.575979
 O    3.614363   -4.518603    2.598622
 O    3.974074   -2.977890    4.924920
 O   11.490015   -5.578203    5.075621
 O   14.961479   -2.341686   12.029661
 H   14.961479   -2.341686   13.029661
 O    1.891164   -5.170666    0.567911
 H    1.725068   -5.173688   -0.418194
Ca    5.850008   -1.421816    5.300438
Ca    4.042193   -4.344042    7.258752
Si    5.605112   -1.461667    8.362427
Si   15.072958   -2.359083   10.453912
Si    2.528454   -1.490305    8.505386
 O   13.937401   -1.402644    9.706673
 O    4.101659   -1.462268    9.069493
 O   13.178653   -2.766796    7.438835
 O    5.824144   -0.134382    7.473523
 O   15.028722   -3.880512    9.752323
 H   14.466692   -4.486251   10.300041
 O    3.798742   -4.459791    9.868924
 H    3.389291   -5.362057    9.925526
 H    3.090254   -3.850814   10.148219
 O    1.784102   -1.709401    9.981591
 O    2.200155   -0.123856    7.721575
 O    2.272522   -2.752105    7.518145
Ca   11.406166   -9.856339    7.297829
Ca   13.244193   -7.142531    5.398290
Si   11.108196   -9.905928    4.190309
Si   13.261298  -10.774980    2.179523
Si    0.649179   -9.917184    4.240439
 O   11.955332   -9.923327    2.748434
 O    9.555728   -9.866972    3.600259
 O   11.341011  -11.204841    5.121904
 O   11.403741   -8.571440    5.053286
 O    2.023653   -6.703959    2.823691
 H    2.547156   -7.338755    2.282581
 O   13.525190   -7.225313    2.820701
 H   13.015226   -8.039212    2.616532
 H   14.461145   -7.515243    2.790118
 O   14.549107   -9.977786    2.815567
 O   15.093838   -8.569393    5.075785
 O    7.779435  -11.208722    5.192568
 O   11.330072   -7.952689   12.041561
 H   11.275733   -7.939846   13.040001
 O   13.292529  -10.806502    0.596617
 H   13.312251  -10.826408   -0.402990
Ca    2.196331   -7.028711    5.284439
Ca   15.093851   -9.971944    7.336198
Si    1.945535   -7.092130    8.340462
Si   11.415870   -7.972968   10.465094
Si   13.573391   -7.114797    8.488150
 O   10.249930   -7.038447    9.729373
 O   15.159932   -7.093278    9.016723
 O    9.546578   -8.402153    7.446939
 O    2.170845   -5.768597    7.444502
 O   11.397280   -9.496870    9.760428
 H   10.849014  -10.117328   10.302945
 O   14.838644  -10.103994    9.920975
 H   14.418516  -11.003897    9.959532
 H   14.144216   -9.490902   10.226069
 O   12.845015   -7.292860    9.973838
 O   13.245076   -5.765381    7.671121
 O   13.294803   -8.391059    7.528170
Ca    7.723736   -4.217901    7.319481
Ca    9.549251   -1.516778    5.368901
Si    7.425707   -4.262362    4.261542
Si    9.526551   -5.166854    2.130574
Si   11.724419   -4.300052    4.098957
 O    8.415376   -4.227608    2.924861
 O    5.926365   -4.191949    3.580058
 O    7.645741   -5.578644    5.167949
 O    7.692294   -2.941334    5.156171
 O   13.161442   -1.039516    2.872216
 H   13.664148   -1.683149    2.319757
 O    9.478780   -1.689315    2.814217
 H    9.183773   -2.635140    2.824600
 H   10.410387   -1.725436    2.527010
 O   10.979832   -4.496281    2.598772
 O   11.342936   -2.965451    4.926826
 O    4.121745   -5.589299    5.079362
 O    9.257047   -5.175882    0.577872
 H    9.086036   -5.181611   -0.407380
Ca   13.221089   -1.417464    5.291677
Ca   11.409663   -4.342406    7.257624
Si   12.973600   -1.456738    8.352176
Si    7.712152   -2.355975   10.460770
 O    7.712152   -2.355975   12.260770
 H    7.712152   -2.355975   13.260770
Si    9.895929   -1.485740    8.501342
 O    6.570443   -1.404530    9.715732
 O   11.470730   -1.441839    9.060035
 O    5.812703   -2.766755    7.440884
 O   13.197539   -0.133360    7.459292
 O    7.664355   -3.877832    9.757508
 H    7.100525   -4.482116   10.304938
 O   11.167003   -4.460896    9.869038
 H   10.758174   -5.363295    9.927476
 H   10.458555   -3.851675   10.147922
 O    9.155748   -1.706811    9.978588
 O    9.562759   -0.123388    7.712693
 O    9.645967   -2.751352    7.517942
Ca    4.039333   -9.855933    7.302755
Ca    5.877143   -7.149185    5.404655
Si    3.737808   -9.906721    4.195542
Si    5.883172  -10.785377    2.185044
Si    8.016005   -9.924556    4.241056
 O    4.586443   -9.917725    2.752902
 O    2.188644   -9.860955    3.601312
 O    3.972752  -11.206487    5.125037
 O    4.036211   -8.574166    5.060438
 O    9.428401   -6.700740    2.838913
 H    9.951132   -7.332176    2.293997
 O    6.109308   -7.274780    2.824147
 H    5.570506   -8.076649    2.639637
 H    7.032560   -7.599748    2.789965
 O    7.178880   -9.997809    2.817778
 O    7.728856   -8.573274    5.072290
 O   15.150660  -11.205134    5.188188
 O    3.922121   -7.927088   12.035205
 H    3.848730   -7.901616   13.032183
 O    5.915066  -10.824693    0.602516
 H    5.935210  -10.849524   -0.396973
Ca    9.565465   -7.028210    5.291984
Ca    7.724153   -9.972502    7.342948
Si    9.314745   -7.093657    8.353853
Si    4.038024   -7.967315   10.460724
Si    6.206797   -7.114978    8.496489
 O    2.883914   -7.032295    9.710426
 O    7.792818   -7.093368    9.026564
 O    2.178507   -8.403604    7.439713
 O    9.543040   -5.769993    7.457313
 O    4.022820   -9.495500    9.767545
 H    3.459237  -10.108071   10.303971
 O    7.476858  -10.102461    9.926598
 H    7.050032  -10.998665    9.969564
 H    6.794165   -9.483880   10.246763
 O    5.473945   -7.295307    9.980292
 O    5.877669   -5.765794    7.679225
 O    5.929341   -8.391546    7.535984
