348
Lattice="11.2687674930 0.0000000000 0.0000000000 0.0000000000 14.7380000000 0.0000000000 0.0000000000 0.0000000000 22.6800000000" Properties=species:S:1:pos:R:3 pbc="T T T"
O            5.0596766044        2.2328070000        0.0000000000
O            5.0596766044        9.6018070000        0.0000000000
O            5.1949018143        5.8141410000        0.0000000000
O            5.1949018143       13.1831410000        0.0000000000
O           10.6940603509        5.9173070000        0.0000000000
O           10.8292855608        2.1296410000        0.0000000000
O           10.6940603509       13.2863070000        0.0000000000
O           10.8292855608        9.4986410000        0.0000000000
H           11.4891897687        1.4349872633        0.0602221454
H           11.4891897687        8.8039872633        0.0602221454
H            5.8548060222        5.1194872633        0.0602221454
H            5.8548060222       12.4884872633        0.0602221454
Ca           3.1496205143        5.8841465000        0.9979200000
Ca           3.1496205143       13.2531465000        0.9979200000
Ca           8.7840042608        2.1996465000        0.9979200000
Ca           8.7840042608        9.5686465000        0.9979200000
H            1.9621811687        1.8186642530        1.5761675420
H            1.9621811687        9.1876642530        1.5761675420
H            7.5965649152        5.5031642530        1.5761675420
H            7.5965649152       12.8721642530        1.5761675420
Si           5.1554611281        2.1996465000        1.6102800000
Si           5.1554611281        9.5686465000        1.6102800000
Si          10.7898448746        5.8841465000        1.6102800000
Si          10.7898448746       13.2531465000        1.6102800000
H            0.6390228393        2.5592995992        1.6503698739
H            0.6390228393        9.9282995992        1.6503698739
H            6.2734065858        6.2437995992        1.6503698739
H            6.2734065858       13.6127995992        1.6503698739
O            4.2483253449        0.8990180000        2.1523320000
O            1.1099735981        5.8767775000        2.1523320000
O            4.2483253449        8.2680180000        2.1523320000
O            1.1099735981       13.2457775000        2.1523320000
O            6.7443573446        2.1922775000        2.1523320000
O            9.8827090914        4.5835180000        2.1523320000
O            6.7443573446        9.5612775000        2.1523320000
O            9.8827090914       11.9525180000        2.1523320000
O            1.3353489479        2.1922775000        2.1999600000
O            1.3353489479        9.5612775000        2.1999600000
O            6.9697326944        5.8767775000        2.1999600000
O            6.9697326944       13.2457775000        2.1999600000
O            4.2370565774        3.5150130000        2.2044960000
O            4.2370565774       10.8840130000        2.2044960000
O            9.8714403239        7.1995130000        2.2044960000
O            9.8714403239       14.5685130000        2.2044960000
O            4.3497442523        5.8878310000        3.0119040000
O            4.3497442523       13.2568310000        3.0119040000
O            9.9841279988        2.2033310000        3.0119040000
O            9.9841279988        9.5723310000        3.0119040000
Si           4.2652284961        0.0670579000        3.5698320000
Si           4.2652284961        7.4360579000        3.5698320000
Si           9.8996122426        3.7515579000        3.5698320000
Si           9.8996122426       11.1205579000        3.5698320000
Si           4.2708628799        4.3329720000        3.6038520000
Si           4.2708628799       11.7019720000        3.6038520000
Si           9.9052466264        0.6484720000        3.6038520000
Si           9.9052466264        8.0174720000        3.6038520000
O            2.9467826994        0.3721345000        4.4135280000
O            2.9467826994        7.7411345000        4.4135280000
O            8.5811664459        4.0566345000        4.4135280000
O            8.5811664459       11.4256345000        4.4135280000
O            2.9524170832        4.0161050000        4.4498160000
O            2.9524170832       11.3851050000        4.4498160000
O            8.5868008297        0.3316050000        4.4498160000
O            8.5868008297        7.7006050000        4.4498160000
O            5.5893086765        0.3021290000        4.4702280000
O            5.5893086765        7.6711290000        4.4702280000
O           11.2236924231        3.9866290000        4.4702280000
O           11.2236924231       11.3556290000        4.4702280000
O            5.5442336066        4.0750570000        4.5405360000
O            5.5442336066       11.4440570000        4.5405360000
O           11.1786173531        0.3905570000        4.5405360000
O           11.1786173531        7.7595570000        4.5405360000
Ca           1.4193012657        5.8719876500        4.6607400000
Ca           1.4193012657       13.2409876500        4.6607400000
Ca           7.0536850123        2.1874876500        4.6607400000
Ca           7.0536850123        9.5564876500        4.6607400000
Ca           1.4829698021        2.2062786000        4.6924920000
Ca           1.4829698021        9.5752786000        4.6924920000
Ca           7.1173535486        5.8907786000        4.6924920000
Ca           7.1173535486       13.2597786000        4.6924920000
Ca           4.3001616753        0.3640286000        6.6475080000
Ca           4.3001616753        7.7330286000        6.6475080000
Ca           9.9345454219        4.0485286000        6.6475080000
Ca           9.9345454219       11.4175286000        6.6475080000
Ca           4.2364931390        4.0297376500        6.6792600000
Ca           4.2364931390       11.3987376500        6.6792600000
Ca           9.8708768855        0.3452376500        6.6792600000
Ca           9.8708768855        7.7142376500        6.6792600000
O            2.7270417333        5.9173070000        6.7994640000
O            2.7270417333       13.2863070000        6.7994640000
O            8.3614254798        2.2328070000        6.7994640000
O            8.3614254798        9.6018070000        6.7994640000
O            2.7721168033        2.1443790000        6.8697720000
O            2.7721168033        9.5133790000        6.8697720000
O            8.4065005498        5.8288790000        6.8697720000
O            8.4065005498       13.1978790000        6.8697720000
O            0.1352252099        5.8583550000        6.8901840000
O            0.1352252099       13.2273550000        6.8901840000
O            5.7696089564        2.1738550000        6.8901840000
O            5.7696089564        9.5428550000        6.8901840000
O            0.1295908262        2.2143845000        6.9264720000
O            0.1295908262        9.5833845000        6.9264720000
O            5.7639745727        5.8988845000        6.9264720000
O            5.7639745727       13.2678845000        6.9264720000
Si           1.4536710066        6.1752220000        7.7361480000
Si           1.4536710066       13.5442220000        7.7361480000
Si           7.0880547531        2.4907220000        7.7361480000
Si           7.0880547531        9.8597220000        7.7361480000
Si           1.4480366229        1.9093079000        7.7701680000
Si           1.4480366229        9.2783079000        7.7701680000
Si           7.0824203694        5.5938079000        7.7701680000
Si           7.0824203694       12.9628079000        7.7701680000
O            1.5325523791        0.3610810000        8.3280960000
O            1.5325523791        7.7300810000        8.3280960000
O            7.1669361256        4.0455810000        8.3280960000
O            7.1669361256       11.4145810000        8.3280960000
O            1.4198647041        5.3572630000        9.1355040000
O            1.4198647041       12.7262630000        9.1355040000
O            7.0542484506        1.6727630000        9.1355040000
O            7.0542484506        9.0417630000        9.1355040000
O            4.1525408212        0.3500275000        9.1400400000
O            4.1525408212        7.7190275000        9.1400400000
O            9.7869245677        4.0345275000        9.1400400000
O            9.7869245677       11.4035275000        9.1400400000
O            1.4311334716        2.7412680000        9.1876680000
O            3.9271654713        4.0345275000        9.1876680000
O            1.4311334716       10.1102680000        9.1876680000
O            3.9271654713       11.4035275000        9.1876680000
O            9.5615492178        0.3500275000        9.1876680000
O            7.0655172181        6.4257680000        9.1876680000
O            9.5615492178        7.7190275000        9.1876680000
O            7.0655172181       13.7947680000        9.1876680000
H            3.4545177716        7.3489797084        9.6853872413
H            3.4545177716       -0.0200202916        9.6853872413
H            9.0889015181        3.6644797084        9.6853872413
H            9.0889015181       11.0334797084        9.6853872413
Si           2.3382692548        4.0418965000        9.7297200000
Si           2.3382692548       11.4108965000        9.7297200000
Si           7.9726530013        0.3573965000        9.7297200000
Si           7.9726530013        7.7263965000        9.7297200000
H            4.7810699829        0.7134841438        9.7680753429
H            4.7810699829        8.0824841438        9.7680753429
H           10.4154537294        4.3979841438        9.7680753429
H           10.4154537294       11.7669841438        9.7680753429
H            1.9396240499        0.9315475899       10.7789561710
H            1.9396240499        8.3005475899       10.7789561710
H            7.5740077964        4.6160475899       10.7789561710
H            7.5740077964       11.9850475899       10.7789561710
O            5.1836330468        5.8952000000       10.8864000000
O            5.1836330468       13.2642000000       10.8864000000
O           10.8180167933        2.2107000000       10.8864000000
O           10.8180167933        9.5797000000       10.8864000000
O            5.0709453719        2.2843900000       10.9090800000
O            5.0709453719        9.6533900000       10.9090800000
O           10.7053291184        5.9688900000       10.9090800000
O           10.7053291184       13.3378900000       10.9090800000
H            2.0557159876        6.8075062503       11.0280892928
H            2.0557159876       -0.5614937497       11.0280892928
H            7.6900997341        3.1230062503       11.0280892928
H            7.6900997341       10.4920062503       11.0280892928
H            4.5158018710        6.5430269088       11.1229658961
H            4.5158018710       13.9120269088       11.1229658961
H           10.1501856175        2.8585269088       11.1229658961
H           10.1501856175       10.2275269088       11.1229658961
O            2.2424847311        4.0750570000       11.3400000000
O            2.3777099410        0.2873910000       11.3400000000
O            2.2424847311       11.4440570000       11.3400000000
O            2.3777099410        7.6563910000       11.3400000000
O            7.8768684776        0.3905570000       11.3400000000
O            7.8768684776        7.7595570000       11.3400000000
O            8.0120936875        3.9718910000       11.3400000000
O            8.0120936875       11.3408910000       11.3400000000
H           11.3511025367        5.4279074047       11.3694582364
H           11.3511025367       12.7969074047       11.3694582364
H            5.7167187902        1.7434074047       11.3694582364
H            5.7167187902        9.1124074047       11.3694582364
H            4.6671304013        2.8160242667       11.5989489164
H            4.6671304013       10.1850242667       11.5989489164
H           10.3015141478        6.5005242667       11.5989489164
H           10.3015141478       13.8695242667       11.5989489164
H           11.3063390190        2.0610459268       11.6992665882
H           11.3063390190        9.4300459268       11.6992665882
H            5.6719552724        5.7455459268       11.6992665882
H            5.6719552724       13.1145459268       11.6992665882
H            4.5242243123        3.8901333793       12.7416127654
H            4.5242243123       11.2591333793       12.7416127654
H           10.1586080588        0.2056333793       12.7416127654
H           10.1586080588        7.5746333793       12.7416127654
H            4.7777129753        7.3424524056       12.9162825061
H            4.7777129753       14.7114524056       12.9162825061
H           10.4120967219        3.6579524056       12.9162825061
H           10.4120967219       11.0269524056       12.9162825061
Si           2.3382692548        4.0418965000       12.9502800000
Si           2.3382692548       11.4108965000       12.9502800000
Si           7.9726530013        0.3573965000       12.9502800000
Si           7.9726530013        7.7263965000       12.9502800000
H            3.4578747792       15.4580114465       12.9902549098
H            3.4578747792        8.0890114465       12.9902549098
H            9.0922585257        4.4045114465       12.9902549098
H            9.0922585257       11.7735114465       12.9902549098
O            1.4311334716        2.7412680000       13.4923320000
O            3.9271654713        4.0345275000       13.4923320000
O            1.4311334716       10.1102680000       13.4923320000
O            3.9271654713       11.4035275000       13.4923320000
O            9.5615492178        0.3500275000       13.4923320000
O            7.0655172181        6.4257680000       13.4923320000
O            9.5615492178        7.7190275000       13.4923320000
O            7.0655172181       13.7947680000       13.4923320000
O            4.1525408212       15.0880275000       13.5399600000
O            4.1525408212        7.7190275000       13.5399600000
O            9.7869245677        4.0345275000       13.5399600000
O            9.7869245677       11.4035275000       13.5399600000
O            1.4198647041        5.3572630000       13.5444960000
O            1.4198647041       12.7262630000       13.5444960000
O            7.0542484506        1.6727630000       13.5444960000
O            7.0542484506        9.0417630000       13.5444960000
O            1.5325523791        0.3610810000       14.3519040000
O            1.5325523791        7.7300810000       14.3519040000
O            7.1669361256        4.0455810000       14.3519040000
O            7.1669361256       11.4145810000       14.3519040000
Si           1.4480366229        1.9093079000       14.9098320000
Si           1.4480366229        9.2783079000       14.9098320000
Si           7.0824203694        5.5938079000       14.9098320000
Si           7.0824203694       12.9628079000       14.9098320000
Si           1.4536710066        6.1752220000       14.9438520000
Si           1.4536710066       13.5442220000       14.9438520000
Si           7.0880547531        2.4907220000       14.9438520000
Si           7.0880547531        9.8597220000       14.9438520000
O            0.1295908262        2.2143845000       15.7535280000
O            0.1295908262        9.5833845000       15.7535280000
O            5.7639745727        5.8988845000       15.7535280000
O            5.7639745727       13.2678845000       15.7535280000
O            0.1352252099        5.8583550000       15.7898160000
O            0.1352252099       13.2273550000       15.7898160000
O            5.7696089564        2.1738550000       15.7898160000
O            5.7696089564        9.5428550000       15.7898160000
O            2.7721168033        2.1443790000       15.8102280000
O            2.7721168033        9.5133790000       15.8102280000
O            8.4065005498        5.8288790000       15.8102280000
O            8.4065005498       13.1978790000       15.8102280000
O            2.7270417333        5.9173070000       15.8805360000
O            2.7270417333       13.2863070000       15.8805360000
O            8.3614254798        2.2328070000       15.8805360000
O            8.3614254798        9.6018070000       15.8805360000
Ca           4.2364931390        4.0297376500       16.0007400000
Ca           4.2364931390       11.3987376500       16.0007400000
Ca           9.8708768855        0.3452376500       16.0007400000
Ca           9.8708768855        7.7142376500       16.0007400000
Ca           4.3001616753        0.3640286000       16.0324920000
Ca           4.3001616753        7.7330286000       16.0324920000
Ca           9.9345454219        4.0485286000       16.0324920000
Ca           9.9345454219       11.4175286000       16.0324920000
Ca           1.4829698021        2.2062786000       17.9875080000
Ca           1.4829698021        9.5752786000       17.9875080000
Ca           7.1173535486        5.8907786000       17.9875080000
Ca           7.1173535486       13.2597786000       17.9875080000
Ca           1.4193012657        5.8719876500       18.0192600000
Ca           1.4193012657       13.2409876500       18.0192600000
Ca           7.0536850123        2.1874876500       18.0192600000
Ca           7.0536850123        9.5564876500       18.0192600000
O            5.5442336066        4.0750570000       18.1394640000
O            5.5442336066       11.4440570000       18.1394640000
O           11.1786173531        0.3905570000       18.1394640000
O           11.1786173531        7.7595570000       18.1394640000
O            5.5893086765        0.3021290000       18.2097720000
O            5.5893086765        7.6711290000       18.2097720000
O           11.2236924231        3.9866290000       18.2097720000
O           11.2236924231       11.3556290000       18.2097720000
O            2.9524170832        4.0161050000       18.2301840000
O            2.9524170832       11.3851050000       18.2301840000
O            8.5868008297        0.3316050000       18.2301840000
O            8.5868008297        7.7006050000       18.2301840000
O            2.9467826994        0.3721345000       18.2664720000
O            2.9467826994        7.7411345000       18.2664720000
O            8.5811664459        4.0566345000       18.2664720000
O            8.5811664459       11.4256345000       18.2664720000
Si           4.2708628799        4.3329720000       19.0761480000
Si           4.2708628799       11.7019720000       19.0761480000
Si           9.9052466264        0.6484720000       19.0761480000
Si           9.9052466264        8.0174720000       19.0761480000
Si           4.2652284961        0.0670579000       19.1101680000
Si           4.2652284961        7.4360579000       19.1101680000
Si           9.8996122426        3.7515579000       19.1101680000
Si           9.8996122426       11.1205579000       19.1101680000
O            4.3497442523        5.8878310000       19.6680960000
O            4.3497442523       13.2568310000       19.6680960000
O            9.9841279988        2.2033310000       19.6680960000
O            9.9841279988        9.5723310000       19.6680960000
O            4.2370565774        3.5150130000       20.4755040000
O            4.2370565774       10.8840130000       20.4755040000
O            9.8714403239        7.1995130000       20.4755040000
O            9.8714403239       14.5685130000       20.4755040000
O            1.3353489479        2.1922775000       20.4800400000
O            1.3353489479        9.5612775000       20.4800400000
O            6.9697326944        5.8767775000       20.4800400000
O            6.9697326944       13.2457775000       20.4800400000
O            4.2483253449        0.8990180000       20.5276680000
O            1.1099735981        5.8767775000       20.5276680000
O            4.2483253449        8.2680180000       20.5276680000
O            1.1099735981       13.2457775000       20.5276680000
O            6.7443573446        2.1922775000       20.5276680000
O            9.8827090914        4.5835180000       20.5276680000
O            6.7443573446        9.5612775000       20.5276680000
O            9.8827090914       11.9525180000       20.5276680000
H            0.6393738716        1.8185391096       21.0254877922
H            0.6393738716        9.1875391096       21.0254877922
H            6.2737576181        5.5030391096       21.0254877922
H            6.2737576181       12.8720391096       21.0254877922
Si           5.1554611281        2.1996465000       21.0697200000
Si           5.1554611281        9.5686465000       21.0697200000
Si          10.7898448746        5.8841465000       21.0697200000
Si          10.7898448746       13.2531465000       21.0697200000
H            1.9618301363        2.5594247426       21.1079747920
H            1.9618301363        9.9284247426       21.1079747920
H            7.5962138829        6.2439247426       21.1079747920
H            7.5962138829       13.6129247426       21.1079747920
H            1.6966833549        6.1703020173       21.2421597476
H            1.6966833549       13.5393020173       21.2421597476
H            7.3310671015        2.4858020173       21.2421597476
H            7.3310671015        9.8548020173       21.2421597476
H            1.9822510561        4.1969151200       21.3309570964
H            1.9822510561       11.5659151200       21.3309570964
H            7.6166348026        0.5124151200       21.3309570964
H            7.6166348026        7.8814151200       21.3309570964
H            2.7389092227        0.6576915668       21.3902202898
H            2.7389092227        8.0266915668       21.3902202898
H            8.3732929692        4.3421915668       21.3902202898
H            8.3732929692       11.7111915668       21.3902202898
H            5.5909182055        6.4726528869       -0.5754198760
H            5.5909182055       13.8416528869       -0.5754198760
H           11.2253019520        2.7881528869       -0.5754198760
H           11.2253019520       10.1571528869       -0.5754198760
O            2.3664411735        0.3684500000       22.2264000000
O            2.3664411735        7.7374500000       22.2264000000
O            8.0008249201        4.0529500000       22.2264000000
O            8.0008249201       11.4219500000       22.2264000000
O            2.2537534986        4.1266400000       22.2490800000
O            2.2537534986       11.4956400000       22.2490800000
O            7.8881372451        0.4421400000       22.2490800000
O            7.8881372451        7.8111400000       22.2490800000
H            1.6229009106        0.9573079908       22.3748461200
H            1.6229009106        8.3263079908       22.3748461200
H            7.2572846571        4.6418079908       22.3748461200
H            7.2572846571       12.0108079908       22.3748461200
H            2.0929332916        3.2082369176       22.4776810396
H            2.0929332916       10.5772369176       22.4776810396
H            7.7273170381        6.8927369176       22.4776810396
H            7.7273170381       -0.4762630824       22.4776810396
