     392
################# i =      164, E =     -4819.5442117514
 Ca        15.1790387966       -5.2383334945        7.8298711985
 Ca         2.2842043124       -2.5209893787        5.9204354695
 Si        14.9015860758       -5.2343596325        4.7708929853
 Si         2.2390264348       -6.0824122523        2.6112454660
 Si         4.4784621621       -5.3183437234        4.5760220670
  O         1.2079965453       -5.1120146896        3.4744303295
  O        13.4113355643       -5.1818911548        4.0621110771
  O        15.1159391450       -6.5746907673        5.6453738792
  O        15.1315028807       -3.9358112111        5.7113181870
  O        13.2146967183       -3.9621680618       25.9709930638
  O         5.8588533019       -2.0634788335        3.4063520123
  H         6.3655183214       -2.7129562960        2.8667801305
  O         2.5268644076       -2.6267407301        3.3834693918
  H         2.0198164115       -3.4656890478        3.2367581139
  H         3.4642379040       -2.9116332935        3.4102661990
  O         3.7360316028       -5.4930688820        3.0735203669
  O         4.0935765185       -3.9803067557        5.4079323446
  O        11.5932809241       -6.5975233619        5.5453953070
  O        16.4704751938       -4.2350235257       25.7214702400
  H        16.9982791979       -4.9211396040       25.2400590428
  H        15.9917646843       -3.7764789670       24.9882938217
  O        14.7877505393       -2.8777924650       28.2078961363
  H        15.6013048674       -2.3155571854       28.2203393821
  H        14.1044772487       -2.2172703213       27.8965341681
 Ca         2.2109355400       -0.3027049905       21.1942937767
 Ca        15.0957291063       -3.2507247485       19.2141057024
 Si         1.9504037802       -0.3984689917       18.1447165116
 Si         4.1515288122       -1.2377586318       16.0687601978
 Si         6.2481447497       -0.3247577489       18.0609070953
  O         2.8710569084       -0.4577891667       16.7700128852
  O        15.1625538770       -0.3523964800       17.4522839680
  O         2.1538982311       -1.6949912294       19.0778564315
  O         2.1877304003        0.9355369845       19.0302016076
  O        15.0474760302       -3.3003187146       12.5409162195
  O         4.3207918481       -2.7556842302       16.8114826427
  H         5.2866020292       -3.0304296244       16.7363267748
  O        14.3531784741       -3.3702253492       16.7002334320
  H        14.3378297323       -4.3250276263       16.4583453002
  H        14.7557531664       -2.8618440970       15.9478012641
  O         5.4514147578       -0.3572045213       16.5949824074
  O         5.9584695439        1.0125690791       18.9156911705
  O        13.3350404352       -1.6081059441       19.0115898715
  O         4.3306893157       -3.0767498805       12.2162154827
  H         4.4059949029       -2.7866013222       11.2725478330
  H         5.1189552641       -2.7197180260       12.6657697434
  O         2.2969298026       -0.1316955036       12.1915031834
  H         2.6617069525        0.6493706854       12.6684508141
  H         1.5000231726        0.1775779798       11.6843723488
 Ca         4.0846028524       -3.0960154311       19.2664927581
 Ca         5.9087331895       -0.3684969084       21.1633956236
 Si         3.8182126679       -3.1031261664       22.3058524588
 Si        13.2638926660       -3.9519323777       24.3944740732
 Si         0.7272799457       -3.1648781372       22.3458655053
  O        12.1132193773       -3.0207105936       23.6748532238
  O         2.2835620408       -3.0488206401       22.9138060783
  O        11.4327688490       -4.4400671078       21.4378295203
  O         4.0686999340       -1.7983845969       21.3840920960
  O         1.9304059615       -6.0153232125        1.0730039095
  O         2.1028495269       -0.0060385414       23.6421719093
  H         2.4647924016       -0.7554710154       24.1511107953
  O         6.0808856025       -0.4514736688       23.7604708491
  H         7.0146684497       -0.7353370989       23.8096693117
  H         5.5743102482       -1.2798158424       23.9276966324
  O        14.6860241974       -3.3080668567       23.8261238759
  O        15.0726190175       -1.8344556570       21.5168194947
  O        15.2095768286       -4.4657710983       21.4113205533
 Ca        14.7813351030       -5.1438888865       27.2528806927
  O        14.3246278255       -7.1192461717       25.6176692374
  H        13.7305997233       -7.8265297683       25.9622213013
  H        14.9615114503       -7.6518293311       25.0773014597
  O        13.0134553221       -6.5291243027       28.3664521381
  H        12.3374081606       -5.9808576354       28.8381526975
  H        13.3348818077       -7.1167724635       29.1041870826
 Ca         5.9514539951       -2.4160485477        5.8118863006
 Ca         4.1449325645       -5.3722385049        7.7377971873
 Si         5.7067198230       -2.4689705415        8.8587140661
 Si        15.1681340621       -3.3486431784       10.9677850425
 Si         2.6327057140       -2.4991265489        9.0104480366
  O        14.0370072641       -2.3990157361       10.2064091368
  O         4.2051388458       -2.4176931461        9.5668710653
  O        13.2536450271       -3.7917502268        7.9624161837
  O         5.9407576808       -1.1554263079        7.9506496222
  O         4.0260652943       -1.3171785260       14.5099692286
  O        15.1312087263       -4.8760958472       10.2764129379
  H        14.5530599538       -5.4747619107       10.8171678280
  O         3.8812266202       -5.4552064468       10.3776603070
  H         3.4777711362       -6.3623098352       10.4151585842
  H         3.1630147430       -4.8521400230       10.6458877762
  O         1.8996201810       -2.7119538490       10.4912352016
  O         2.2803324765       -1.1564458960        8.1918932755
  O         2.3926235852       -3.7784962540        8.0428098870
  O         0.5371165705       -1.4951473730       14.8974196109
  H         0.6025350698       -0.8766873828       15.6683036795
  H        -0.4175227907       -1.2460358037       14.4398684606
  O         2.7524469719       -4.0799914850       14.9117783008
  H         3.3785798969       -3.7600491986       15.6059469719
  H         2.2216669160       -4.7631186614       15.3796704496
 Ca         2.3283880934       -2.3093581560       13.3450121292
 Ca        11.5228469912      -10.8688305614        7.8176178795
 Ca        13.3524017152       -8.1535065720        5.8880987194
 Si        11.2552490236      -10.8977208162        4.7476798869
 Si        13.3687555608      -11.8176080039        2.6796306756
 Si         0.8212496883      -10.9445709490        4.6420305730
  O        12.2178172108      -10.8679481783        3.3856985157
  O         9.7415841890      -10.8212620130        4.1060565784
  O        11.4607074602      -12.2193375193        5.6553997699
  O        11.5241642429       -9.5804274288        5.6465482585
  O         9.7714163477       -9.9472980066       25.9851109557
  O         2.1012721366       -7.6395040945        3.2648698591
  H         2.5315663783       -8.2724994546        2.6338841747
  O        13.5832391228       -8.2699182207        3.3111414820
  H        13.1303223348       -9.1334338001        3.1638615813
  H        14.5399541418       -8.4832942001        3.3084898290
  O        14.7969390450      -11.1191229482        3.1485908987
  O        15.1613079955       -9.5926375635        5.4407840151
  O         7.9287780524      -12.2184266837        5.6135354801
  O        12.7657067490       -9.6874441159       25.7945259880
  H        13.3657547259      -10.2171806971       25.2250606123
  H        12.1504026983       -9.3049487122       25.1250551668
  O        10.9113862875       -8.8220305238       28.2036383193
  H        11.5680137565       -8.0982370734       28.0900079344
  H        10.3001226080       -8.7284206026       27.4301995115
 Ca        13.3076778476       -5.9362883894       21.2843345365
 Ca        11.4340594246       -8.8687244536       19.2069002335
 Si        13.0269563179       -6.0524060604       18.2187914138
 Si        15.2068428851       -6.8833887554       16.1159740377
 Si         2.5758482244       -5.9799410072       18.1188167869
  O        13.9266321833       -6.1093551110       16.8284858634
  O        11.5054985678       -6.0643744081       17.5526392660
  O        13.2719017757       -7.3321121831       19.1689515565
  O        13.2513931057       -4.7005456156       19.0731781099
  O        11.3861972090       -8.8912646900       12.5245846961
  O        15.3694555694       -8.4052902112       16.8487385862
  H        16.3322207184       -8.6791658573       16.7705661965
  O        10.7114270759       -8.9836464589       16.7076396888
  H        10.7031465166       -9.9331690989       16.4474952917
  H        11.1043275018       -8.4604529270       15.9598612072
  O        16.5194983204       -6.0196732587       16.6417883314
  O         2.2959789944       -4.6172233858       18.9261055785
  O         9.6289460959       -7.2456705804       19.0864499744
  O        15.4197867559       -8.6680471497       12.1919514963
  H        15.4832488190       -8.4001353233       11.2411000409
  H        16.2506883321       -8.3664142837       12.6046109853
  O        13.3525622366       -5.7572311857       12.1941552972
  H        13.7268742207       -4.9712606397       12.6590873396
  H        12.5508357677       -5.4506462049       11.6932999660
 Ca        15.1485999021       -8.7438426343       19.3385913321
 Ca         2.2748856062       -6.0262092701       21.2660148961
 Si        14.8306768810       -8.8146321992       22.4349879129
 Si         9.5911041400       -9.7856240839       24.4311064531
 Si        11.7342479660       -8.8211974839       22.3363469252
  O         8.2633720836       -8.9414116810       23.9137472902
  O        13.2649167475       -8.7645538359       22.9582302619
  O         7.7500019816      -10.0745452091       21.4565244885
  O        15.1685485701       -7.4508465890       21.6324665641
  O        13.2006279464      -11.9184648116        1.1111782728
  O        13.0738772881       -5.5057058510       23.7430068736
  H        13.4699153368       -6.1837179342       24.3628401720
  O         2.8709531517       -6.0631919043       23.8782940124
  H         3.8321799329       -5.8421045900       23.8057737947
  H         2.8979611971       -7.0325801286       24.0368673881
  O        10.8574493690       -8.9137879660       23.7690666384
  O        11.4462296010       -7.4704263099       21.5082842089
  O        11.4899878926      -10.1018788808       21.3799475251
 Ca        11.2920552553      -11.1798879320       27.2331776111
  O        11.1668600602      -13.4374767532       26.3903809253
  H        10.4163975529      -14.0545266579       26.2285557879
  H        11.9642225053      -14.0413192829       26.3227887478
  O         9.4594309587      -12.1319575176       28.5125322595
  H         8.8111629247      -11.5270805044       28.9449132048
  H         9.7485106927      -12.7068601597       29.2771660284
 Ca         2.3045618237       -8.0492774709        5.7168449790
 Ca        15.2060817327      -11.0017248977        7.7768720868
 Si         2.0632126844       -8.1075132872        8.8104857016
 Si        11.5184231972       -8.9673330482       10.9529072918
 Si        13.6960444945       -8.1359004478        8.9903791741
  O        10.3954366554       -8.0312539417       10.1594901971
  O        15.2797124167       -8.0631213504        9.5209811784
  O         9.6194735378       -9.4343472147        7.9241423178
  O         2.2842236648       -6.7939934402        7.9008329204
  O        15.0701858774       -6.9385293385       14.5575807945
  O        11.4838593577      -10.5034776680       10.2784914154
  H        10.9090614259      -11.1035474848       10.8194822508
  O        14.9363261570      -11.0939726042       10.3881464438
  H        14.5279031255      -11.9985208167       10.4372495358
  H        14.2243271290      -10.4827769580       10.6562245010
  O        12.9808390075       -8.3460796795       10.4810807554
  O        13.3334002843       -6.7917596904        8.1785136058
  O        13.4432963512       -9.4152734974        8.0283538786
  O        11.6235683817       -7.1072134299       14.9123586393
  H        11.7125840274       -6.5040427358       15.6897591099
  H        10.7998424110       -6.8293179700       14.4687341731
  O        13.8368075274       -9.7047730118       14.8944287419
  H        14.4534114963       -9.3914696666       15.5999549096
  H        13.3035373264      -10.3953231226       15.3485445246
 Ca        13.4142256685       -7.9254377431       13.3426814928
 Ca         7.8187609595       -5.2383648407        7.8298896323
 Ca         9.6443877536       -2.5209811621        5.9204675041
 Si         7.5413791557       -5.2344251524        4.7708854167
 Si         9.5991749255       -6.0829992333        2.6113522861
 Si        11.8385842295       -5.3184641425        4.5759224101
  O         8.5682226368       -5.1123638668        3.4743061498
  O         6.0511566788       -5.1817249522        4.0621121951
  O         7.7556063039       -6.5747347719        5.6454230736
  O         7.7713825307       -3.9358402771        5.7112337737
  O         5.8546264990       -3.9628365083       25.9712201463
  O        13.2194406887       -2.0636186307        3.4063992314
  H        13.7260880346       -2.7130148049        2.8667182957
  O         9.8869501693       -2.6270172994        3.3835454161
  H         9.3799849203       -3.4660208525        3.2368493065
  H        10.8243370209       -2.9118720674        3.4105642162
  O        11.0962554021       -5.4936185431        3.0733522599
  O        11.4537015417       -3.9802932709        5.4075917004
  O         4.2332229817       -6.5975445585        5.5453331919
  O         9.1100059301       -4.2358886817       25.7216120472
  H         9.6373805947       -4.9221964643       25.2399277367
  H         8.6311164316       -3.7771180484       24.9886898135
  O         7.4270214515       -2.8778072837       28.2080663241
  H         8.2405917912       -2.3155804484       28.2205030222
  H         6.7437946276       -2.2172792770       27.8966169247
 Ca         9.5710058121       -0.3027098293       21.1946293305
 Ca         7.7354875099       -3.2507933214       19.2141663727
 Si         9.3105157908       -0.3984358314       18.1448637431
 Si        11.5115710284       -1.2377747198       16.0687526658
 Si        13.6083348331       -0.3248189860       18.0608668478
  O        10.2312769453       -0.4577054788       16.7702330778
  O         7.8023059894       -0.3522468386       17.4521811391
  O         9.5140676662       -1.6950162835       19.0778793951
  O         9.5478996529        0.9355289261       19.0303791869
  O         7.6870003590       -3.3002937567       12.5408972535
  O        11.6808529813       -2.7557198079       16.8114259781
  H        12.6466504437       -3.0305422157       16.7362278246
  O         6.9931175539       -3.3701899594       16.7002696572
  H         6.9777805568       -4.3249842428       16.4583910704
  H         7.3956361148       -2.8617752399       15.9478224103
  O        12.8116464257       -0.3574161887       16.5948953490
  O        13.3186265467        1.0125602305       18.9155930396
  O         5.9748822616       -1.6081078382       19.0115974388
  O        11.6907476609       -3.0768105882       12.2163340544
  H        11.7661979986       -2.7866741805       11.2726670585
  H        12.4787805538       -2.7195374804       12.6660798409
  O         9.6570828965       -0.1317186130       12.1915635137
  H        10.0219372559        0.6493007245       12.6685286748
  H         8.8601841456        0.1776315786       11.6844716091
 Ca        11.4446752107       -3.0959503706       19.2663962806
 Ca        13.2689234674       -0.3684659144       21.1633765764
 Si        11.1782521306       -3.1030289440       22.3058162798
 Si         5.9036434093       -3.9520908826       24.3947434802
 Si         8.0874240548       -3.1649138281       22.3460401215
  O         4.7527882608       -3.0209983433       23.6751937940
  O         9.6436688063       -3.0488938686       22.9139763886
  O         4.0725194485       -4.4402170124       21.4378299931
  O        11.4287544675       -1.7983949175       21.3839189370
  O         9.2904632815       -6.0166089079        1.0730429988
  O         9.4632420862       -0.0058375192       23.6430346219
  H         9.8250813577       -0.7551704822       24.1522043166
  O        13.4415867718       -0.4512406585       23.7605418908
  H        14.3754286011       -0.7349241160       23.8096924376
  H        12.9351066496       -1.2796000583       23.9279323131
  O         7.3258180437       -3.3082129891       23.8263826077
  O         7.7125097204       -1.8343516881       21.5171115300
  O         7.8494736857       -4.4657458414       21.4113114785
 Ca         7.4209776183       -5.1444011424       27.2532530788
  O         6.9646531346       -7.1197985283       25.6180382129
  H         6.3707028988       -7.8269350390       25.9629933063
  H         7.6012112038       -7.6525519121       25.0774758857
  O         5.6527942232       -6.5291881354       28.3661131869
  H         4.9767230404       -5.9809572988       28.8377777241
  H         5.9738251853       -7.1172054858       29.1036972127
 Ca        13.3117112806       -2.4161630698        5.8119202427
 Ca        11.5051217079       -5.3723172103        7.7379299388
 Si        13.0669257533       -2.4689801637        8.8587643385
 Si         7.8078055394       -3.3486973299       10.9677525496
 Si         9.9929251082       -2.4991775692        9.0105094694
  O         6.6767914097       -2.3989835540       10.2063549896
  O        11.5653562440       -2.4176704994        9.5669469301
  O         5.8935006360       -3.7917342919        7.9623874049
  O        13.3010083072       -1.1554548963        7.9506747692
  O        11.3860535268       -1.3171603939       14.5099715366
  O         7.7708651795       -4.8761467101       10.2764172734
  H         7.1926270932       -5.4747827027       10.8171077836
  O        11.2415387135       -5.4550694616       10.3776878372
  H        10.8380423315       -6.3621466204       10.4152855208
  H        10.5234366654       -4.8519442757       10.6460685681
  O         9.2598192487       -2.7120843318       10.4912988248
  O         9.6405503958       -1.1564952379        8.1919509756
  O         9.7529058388       -3.7785281700        8.0428248373
  O         7.8972820177       -1.4951828962       14.8974660270
  H         7.9627960465       -0.8766950400       15.6683268107
  H         7.0721614414       -1.2460943377       14.4399081042
  O        10.1126598367       -4.0801164595       14.9114801508
  H        10.7386724951       -3.7600866617       15.6057174631
  H         9.5818551417       -4.7632181800       15.3793669058
 Ca         9.6883714177       -2.3093608241       13.3449673014
 Ca         4.1626459270      -10.8688948292        7.8175903405
 Ca         5.9921671913       -8.1535885539        5.8881321044
 Si         3.8950300204      -10.8978700516        4.7476491968
 Si         6.0086929408      -11.8177346162        2.6797340898
 Si         8.1815236810      -10.9445744876        4.6420919878
  O         4.8575215057      -10.8682238381        3.3855890158
  O         2.3813512795      -10.8215012086        4.1060790261
  O         4.1005470582      -12.2194497092        5.6554144890
  O         4.1639929903       -9.5805638136        5.6464886400
  O         2.4113731209       -9.9464076089       25.9855873138
  O         9.4614183303       -7.6399419586        3.2653288592
  H         9.8932912427       -8.2726245966        2.6351647258
  O         6.2225601851       -8.2701539690        3.3111827335
  H         5.7693969053       -9.1335511678        3.1639268069
  H         7.1792226779       -8.4837490748        3.3082049964
  O         7.4367139011      -11.1189412551        3.1486490795
  O         7.8010031171       -9.5928246864        5.4411017987
  O        15.2889160488      -12.2182836229        5.6136667886
  O         5.4056563327       -9.6880001146       25.7948276705
  H         6.0062266913      -10.2174187575       25.2256201801
  H         4.7907982704       -9.3053278493       25.1250769644
  O         3.5488678196       -8.8238550055       28.2027840435
  H         4.2045958340       -8.0994823856       28.0882993365
  H         2.9391424218       -8.7340645170       27.4273129354
 Ca         5.9474368202       -5.9361646514       21.2842855161
 Ca         4.0737616136       -8.8687577711       19.2069348234
 Si         5.6667781477       -6.0524694860       18.2187401553
 Si         7.8466591071       -6.8833575370       16.1159655497
 Si         9.9360417857       -5.9799852089       18.1188092220
  O         6.5663249709       -6.1094280159       16.8283680963
  O         4.1453203560       -6.0644077605       17.5525937337
  O         5.9115705097       -7.3322580100       19.1687925749
  O         5.8911495833       -4.7005483735       19.0731009923
  O         4.0256843070       -8.8913760394       12.5245673075
  O         8.0092884606       -8.4052627031       16.8486658703
  H         8.9720375684       -8.6791677327       16.7705678407
  O         3.3509395776       -8.9837616150       16.7076010327
  H         3.3425688258       -9.9333025996       16.4474650950
  H         3.7438139868       -8.4605170534       15.9598443872
  O         9.1593212548       -6.0196413626       16.6417128691
  O         9.6563515716       -4.6172200476       18.9260733658
  O         2.2686550994       -7.2455750021       19.0864767494
  O         8.0591464498       -8.6680146853       12.1920745541
  H         8.1227263573       -8.3999169844       11.2413002967
  H         8.8897108614       -8.3659515234       12.6051592184
  O         5.9920608465       -5.7573286282       12.1940689861
  H         6.3662988570       -4.9713398358       12.6590056619
  H         5.1903560357       -5.4508237892       11.6930975194
 Ca         7.7883829147       -8.7438127341       19.3384738142
 Ca         9.6349729234       -6.0262017059       21.2659423758
 Si         7.4703973607       -8.8146471601       22.4348019507
 Si         2.2309659424       -9.7851737622       24.4314856594
 Si         4.3739605822       -8.8212182806       22.3363392141
  O         0.9031462071       -8.9411196870       23.9140638241
  O         5.9046437187       -8.7646571354       22.9581105942
  O        15.1102585929      -10.0746517626       21.4568259020
  O         7.8083275762       -7.4507834815       21.6323898532
  O         5.8407287553      -11.9188006745        1.1112562606
  O         5.7135738408       -5.5058053164       23.7430467647
  H         6.1096356742       -6.1840159097       24.3625880737
  O        10.2312672294       -6.0632553239       23.8783701979
  H        11.1924599820       -5.8419597309       23.8058453666
  H        10.2584189155       -7.0326755264       24.0367374992
  O         3.4973453803       -8.9137306713       23.7691697588
  O         4.0858959865       -7.4704634415       21.5082603478
  O         4.1296721827      -10.1019788052       21.3800853509
 Ca         3.9321816774      -11.1809918388       27.2333499867
  O         3.8059981988      -13.4383616558       26.3911417152
  H         3.0555964989      -14.0552886349       26.2282199437
  H         4.6035746809      -14.0417663645       26.3214984368
  O         2.0990985287      -12.1324275537       28.5125484095
  H         1.4510372512      -11.5272324220       28.9447660815
  H         2.3880400544      -12.7072523959       29.2773218105
 Ca         9.6646686251       -8.0493051230        5.7170823489
 Ca         7.8458408782      -11.0017277879        7.7768149746
 Si         9.4233674933       -8.1074733197        8.8106944278
 Si         4.1580785533       -8.9674102289       10.9528829535
 Si         6.3357581345       -8.1358460241        8.9904750517
  O         3.0351136865       -8.0313763179       10.1594061745
  O         7.9194060160       -8.0629994848        9.5212153466
  O         2.2593524892       -9.4343430544        7.9238692134
  O         9.6443465310       -6.7940262955        7.9009184212
  O         7.7100381177       -6.9386535114       14.5575896170
  O         4.1235185117      -10.5035467581       10.2784823064
  H         3.5487618598      -11.1036596034       10.8194773008
  O         7.5761634284      -11.0939724023       10.3881392402
  H         7.1677448288      -11.9985254616       10.4372398621
  H         6.8641636024      -10.4827823333       10.6561955875
  O         5.6204603890       -8.3460436923       10.4811449822
  O         5.9731443792       -6.7917254659        8.1785588333
  O         6.0830440427       -9.4152709498        8.0285191791
  O         4.2630379226       -7.1071791276       14.9125503666
  H         4.3519847718       -6.5041464577       15.6900773594
  H         3.4391797449       -6.8294502709       14.4690397222
  O         6.4762252999       -9.7045577231       14.8945894633
  H         7.0929927780       -9.3912869467       15.5999823641
  H         5.9431221576      -10.3951797855       15.3487998861
 Ca         6.0536312549       -7.9253422919       13.3428569507
