     296
 i =        1, E =     -3962.2323739718
 Ca         8.8694523913        2.9308467174        8.7934269033
 Ca         0.5351242235        4.8392758418       10.9603908131
 Ca         1.5010091193        2.8449743931        1.0740482062
 Ca         8.0750113421        4.7540365759       18.7333211580
 Ca         3.2657428115        6.7267786306        8.9586278651
 Ca         6.1483151969        1.0483916997       10.8682041231
 Ca         6.9849238829        6.6843797033        1.1488154990
 Ca         2.5386234190        0.9676736957       18.6762446488
 Ca         8.8458666657        6.7337394641        8.9895228402
 Ca         0.5498884757        1.0304282848       10.8932170964
 Ca         1.3789873616        6.6378733722        1.0360450330
 Ca         8.0757073715        0.9585896497       18.7834506735
 Ca         3.3174707582        2.9378379722        9.0191904273
 Ca         6.0835537648        4.8241016321       10.8383237575
 Ca         6.9600318354        2.9386610496        1.1263631402
 Ca         2.5137654274        4.7597054031       18.7413662599
 Ca         9.8567763766        0.9820074440       14.8708052718
 Ca        10.7926629670        6.8414003561        5.0111722934
 Ca         4.3125755204        4.7447004295       14.9018868987
 Ca         5.0089927359        2.8558532603        4.9873352598
  O         8.5596154664        6.9837580501       13.6732858826
  H         7.5823550063        6.9791714211       13.6608621743
  O         0.9675126294        0.7973028762        6.2303668597
  H         1.9513345825        0.7988484211        6.2376224452
  O        -0.0991368621        7.0724223598       16.1340737931
  H         0.8965706967        7.0672743194       16.1384504734
  O         9.4376960718        0.5595122964        3.7408354472
  H         8.4704849592        0.5539451271        3.7385969690
  O         3.0875549184        3.2103788906       13.6908709928
  H         2.1095046906        3.1972422056       13.6867438244
  O         6.2090881667        4.3798637586        6.2518318079
  H         7.1887928580        4.3893829958        6.2516218940
  O         5.5583578186        3.2203337449       16.1640451790
  H         6.5358977478        3.2080855380       16.1632941476
  O         3.9281832514        4.3240292915        3.6533211189
  H         2.9489913834        4.3253991451        3.6536360452
  O         8.7434857851        2.3930820147       13.4112467697
  H         7.7650744836        2.4046493879       13.4089149246
  O         0.7889395929        5.3391774513        6.3728025709
  H         1.7694848455        5.3249228597        6.3789612277
  O         0.0185145587        2.5084247524       16.1092002779
  H         0.9955624261        2.5221069471       16.1085428996
  O         9.7061253845        5.2972711073        3.6357412537
  H         8.7191129185        5.2940258679        3.6548118664
  O         3.2066767688        6.1953989010       13.4985381602
  H         2.2307811914        6.1993978362       13.4948056584
  O         6.3337912339        1.3744474134        6.2014916689
  H         7.3072889115        1.3664954414        6.2127658594
  O         5.4721492880        6.2573350833       16.2145841534
  H         6.4470301680        6.2690161555       16.2153147616
  O         3.9642502002        1.4003191273        3.6116885749
  H         2.9842936732        1.3830508799        3.6018336367
  O         7.6179605114        2.9956174871       10.9637202470
  O         1.7879141692        4.7670677553        8.8608376170
  O         0.9982872482        2.9509541878       18.5826885578
  O         8.5154418544        4.8550356154        1.2790928278
  O         2.0296925612        6.8004278710       11.0918396722
  O         7.3614622809        0.9225025054        8.7088602559
  O         6.5247519461        6.7307091878       18.6399463573
  O         2.9666856933        0.9228077577        1.1502925627
  O         7.5789808758        6.6402960665       11.1249860373
  O         1.8056611314        1.1207076009        8.7954450524
  O         0.9608742884        6.5708831353       18.5191716616
  O         8.4842597960        1.0712093873        1.2960753318
  O         2.0649218888        2.8286377000       11.1790926724
  O         7.3335895229        4.9331229041        8.6715570656
  O         6.5571736116        2.8087378317       18.5969987712
  O         2.9106188954        4.8299493045        1.2580358024
  O        10.2341759103        2.8214494563       11.0050180069
  O        10.3470260845        4.9602958244        8.7243176804
  O         9.5605796776        2.6559116178       18.4523009802
  O        11.2758012527        4.6697164482        1.3499335978
  O         4.6338394968        6.6653355716       11.0545359244
  O         4.7730754443        1.1790727036        8.6335739051
  O         3.9175337576        6.5592287455       18.6097446331
  O         5.5470168804        1.0283583221        1.2625271208
  O        10.1913431380        6.8784170227       11.2897236267
  O        10.3680628156        0.8906047864        8.4952654257
  O         9.5203365934        6.7980125821       18.5383632055
  O        11.1045183601        0.9385860555        1.4848711585
  O         4.6742572824        3.0297376994       11.2914083138
  O         4.7193175180        4.7087476489        8.6602843605
  O         3.9577122394        2.9945553258       18.5426472567
  O         5.5138768117        4.7646244948        1.3254222843
  O         9.1616276867        4.7636931617       12.4577846732
  O         0.2326592323        2.9921715476        7.3855194932
  O        -0.6187327757        4.7635709163       17.2571310595
  O         9.7666007883        2.9186482133        2.6999164019
  O         3.6313336544        0.9863325065       12.5485471829
  O         5.6920569625        6.7207096754        7.3152392604
  O         5.0207477510        0.9783997951       17.2851244275
  O         4.2312598554        6.6804108056        2.6554533309
  O         0.8651643842        1.0043741459       13.5101004687
  H         1.3995580361        0.2258139141       13.7505360342
  O         8.6061730414        6.7232696329        6.3375769462
  H         8.0553130198        7.4948674031        6.1174949531
  O         7.7312219449        0.9882667803       16.2040219716
  H         7.1728809599        0.2269581370       15.9626630400
  O         1.4411185693        7.5534700504        3.4574979453
  H         2.1859536907        8.1020229339        3.7294573729
  O         6.4014693923        4.8277066350       13.4962136864
  H         7.0232594195        5.5362796590       13.7440165848
  O         2.9308056937        2.8693450861        6.3275766712
  H         2.3034638407        2.1596283044        6.1013450203
  O         2.1711824273        4.7636484174       16.2299161614
  H         1.5887141279        5.5050918416       15.9852218276
  O         6.9986179964        3.4201659930        3.5697125969
  H         7.7718905854        3.1573553631        4.1081460504
  O         0.9208519727        4.7765630816       13.3821780479
  H         0.2271901806        4.0607556473       13.4444500500
  H         0.3083949398        5.5519287869       13.3732052698
  O         8.4280762253        2.9325722984        6.2823110355
  H         9.1142532295        2.2152943199        6.2171801976
  H         9.0354154776        3.7197572193        6.2874605236
  O         7.6581901079        4.7768365647       16.3461180824
  H         8.2463997482        3.9884646626       16.3478726837
  H         8.2565123219        5.5388002672       16.3450950527
  O         1.4405195140        3.3583171904        3.4728629144
  H         0.8778740291        4.1582397271        3.5962362320
  H         0.8404088259        2.5293420944        3.4804394053
  O         6.4749826335        0.9612460865       13.3211456311
  H         5.7777562176        0.2432903768       13.3855232028
  H         5.8669946126        1.7345126581       13.3152154966
  O         3.0649451350        6.7781009969        6.4356061635
  H         3.6844521888        6.0262038315        6.3355539102
  H         3.7344547360        7.5148497907        6.3179853549
  O         2.1331871104        0.9720450789       16.3541485667
  H         2.7220640494        0.1638946823       16.3563871651
  H         2.7468341140        1.7114134678       16.3190110944
  O         7.2084418290        6.7011338829        3.5613297888
  H         6.5179021587        6.0147415240        3.5314574099
  H         6.5519346865        7.2256229394        4.0461893706
 Si         8.8679033458        6.4765466977       12.0866319820
 Si         0.5286529813        1.2815367684        7.7865963072
 Si        -0.3957896743        6.4491530883       17.6883723541
 Si         9.7329948730        1.2486985218        2.2277090778
 Si         3.3600204519        2.6718786604       12.1302916380
 Si         6.0129741699        5.0482916703        7.7675882921
 Si         5.2726909865        2.6490495989       17.7142717050
 Si         4.1971502646        5.0114805674        2.1530615827
 Si         8.9383581429        3.1104274633       11.9009732974
 Si         0.4711926138        4.6607242320        7.8892926805
 Si        -0.3336646746        3.0569607814       17.6721811839
 Si         9.7612589967        4.5890457665        2.1498578202
 Si         3.3699199788        6.9291847516       11.9977673648
 Si         6.0636069100        0.7971708226        7.7660245146
 Si         5.2152530116        6.8769235027       17.7547537139
 Si         4.2310562271        0.7614211064        2.0793851277
 Ca         8.8057345893       10.5350645130        8.7931190461
 Ca         0.4721963663       12.4425107008       10.9600790730
 Ca         1.4360886770       10.4493658152        1.0724973860
 Ca         8.0120395393       12.3594577414       18.7352407098
 Ca         3.2063244086       14.3272582030        8.9594642134
 Ca         6.0882992794        8.6486739614       10.8690726120
 Ca         6.9236563448       14.2834371114        1.1482160082
 Ca         2.4763180814        8.5681525340       18.6751176811
 Ca         8.7907345826       14.3292652971        8.9913546355
 Ca         0.4944480682        8.6254709617       10.8942904078
 Ca         1.3118014263       14.2420099602        1.0360162117
 Ca         8.0172600289        8.5547653030       18.7829886949
 Ca         3.2531237713       10.5425471968        9.0194009737
 Ca         6.0183291604       12.4280102649       10.8379127316
 Ca         6.8961535595       10.5431205160        1.1272562005
 Ca         2.4481337414       12.3643969190       18.7423644351
 Ca         9.7962754749        8.5843305505       14.8727883473
 Ca        10.7353808017       14.4391295923        5.0178444177
 Ca         4.2475479307       12.3496932749       14.9001906967
 Ca         4.9455435507       10.4602263533        4.9877272249
  O         8.4973905225       14.5838799909       13.6713496532
  H         7.5206085678       14.5850201809       13.6604839882
  O         0.9079011034        8.3980239174        6.2279171910
  H         1.8903901901        8.4043438591        6.2384058439
  O        -0.1438733267       14.6748451888       16.1353799109
  H         0.9419114462       14.6726195499       16.1409624830
  O         9.3795982057        8.1566343546        3.7461219339
  H         8.4082524825        8.1587989431        3.7387469488
  O         3.0249544624       10.8145708979       13.6914053679
  H         2.0465099335       10.8016426151       13.6866111966
  O         6.1452652181       11.9836909499        6.2516797522
  H         7.1250285773       11.9937998333        6.2516064712
  O         5.4957777698       10.8263529916       16.1611177094
  H         6.4714240656       10.8210353048       16.1650245741
  O         3.8650468939       11.9291533776        3.6529466757
  H         2.8862110172       11.9299424215        3.6537928924
  O         8.6797045983        9.9984290556       13.4121940348
  H         7.7011364849       10.0098028506       13.4080398320
  O         0.7255897636       12.9431048616        6.3726956812
  H         1.7053987035       12.9303622736        6.3790504837
  O        -0.0177144161       10.1129397232       16.1078005826
  H         1.0105132641       10.1286539577       16.1106752104
  O         9.5818338405       12.8989128038        3.6055789452
  H         8.5891054579       12.8926217418        3.6165480374
  O         3.1414951377       13.7936736137       13.5001563999
  H         2.1670368122       13.8029905777       13.4948364957
  O         6.2698366824        8.9748952506        6.2025484025
  H         7.2444535794        8.9690894384        6.2129168899
  O         5.4092688446       13.8554129148       16.2094508313
  H         6.3829216513       13.8690145630       16.2173526653
  O         3.9005751863        8.9972351564        3.6091079391
  H         2.9181742160        8.9893169836        3.6021800866
  O         7.5548996004       10.5997382262       10.9640563202
  O         1.7252027560       12.3712428964        8.8610931429
  O         0.9372111980       10.5559451378       18.5831900827
  O         8.4486772566       12.4598683619        1.2772342762
  O         1.9708876036       14.3994907907       11.0927732436
  O         7.3043568013        8.5204340799        8.7103533614
  O         6.4620864558       14.3306277749       18.6398999583
  O         2.9048776941        8.5237156754        1.1518118190
  O         7.5169262220       14.2426353853       11.1257357616
  O         1.7441381324        8.7223629031        8.7963188118
  O         0.8976464604       14.1760131019       18.5184819222
  O         8.4194575091        8.6753318961        1.2934641365
  O         2.0015553058       10.4344181826       11.1788048574
  O         7.2700013474       12.5386798490        8.6711355492
  O         6.4949905985       10.4148686796       18.5959452341
  O         2.8487251030       12.4360156653        1.2592550972
  O        10.1711946633       10.4251223172       11.0055805078
  O        10.2835226009       12.5643538263        8.7243539522
  O         9.4960625999       10.2608091592       18.4532531649
  O        11.1177639573       12.2725256784        1.2027901583
  O         4.5713964394       14.2640009718       11.0498784255
  O         4.7110841083        8.7770992972        8.6289295443
  O         3.8547837510       14.1592980330       18.6090577152
  O         5.4863691415        8.6298375328        1.2621196927
  O        10.1273254610       14.4832803200       11.2910735765
  O        10.3040181848        8.4935690100        8.4963607876
  O         9.4651125146       14.3939584571       18.5370875057
  O        11.0431588705        8.5443931690        1.4867945452
  O         4.6124389468       10.6359371736       11.2903472067
  O         4.6573165864       12.3142720743        8.6592981957
  O         3.8935329870       10.6018321098       18.5426214726
  O         5.4484937184       12.3704897368        1.3263502256
  O         9.0982125066       12.3685904415       12.4576580721
  O         0.1688830854       10.5975714905        7.3850896975
  O        -0.6817658741       12.3684577055       17.2566943559
  O         9.7052979502       10.5270288372        2.6998430797
  O         3.5719709004        8.5693834538       12.5430391948
  O         5.6310325238       14.3039257972        7.3113046026
  O         4.9628703833        8.5614726237       17.2897098293
  O         4.1712084590       14.2621930762        2.6589743578
  O         0.8006785580        8.6098829391       13.5096449206
  H         1.3366567446        7.8297678345       13.7495134568
  O         8.5426080673       14.3287810098        6.3371221185
  H         7.9933162243       15.0974132911        6.1162469370
  O         7.6675809581        8.6057728055       16.2032100030
  H         7.0580948261        9.3362356956       15.9934871467
  O         1.3787276947       15.1590652243        3.4578709463
  H         2.1212238629       15.7105323233        3.7297904715
  O         6.3380278958       12.4329192194       13.4968965988
  H         6.9606335545       13.1411818262       13.7438277803
  O         2.8680656283       10.4739335322        6.3270156976
  H         2.2401528392        9.7642776548        6.1016064854
  O         2.1086367556       12.3691746324       16.2301942293
  H         1.5236715572       13.1106587950       15.9848661941
  O         6.9355673469       11.0263344354        3.5699517084
  H         7.7091182616       10.7629091794        4.1081460757
  O         0.8567308897       12.3806729684       13.3820830580
  H         0.1633954134       11.6660838132       13.4445466930
  H         0.2459476634       13.1577198654       13.3732814806
  O         8.3643244538       10.5375037885        6.2822349632
  H         9.0509170371        9.8208845641        6.2169869607
  H         8.9712757228       11.3247643354        6.2875036565
  O         7.5939917141       12.3819697065       16.3455952515
  H         8.1834239090       11.5937848280       16.3482281368
  H         8.1941651452       13.1445975215       16.3454092398
  O         1.3771007328       10.9627678892        3.4724493040
  H         0.8154221447       11.7634657971        3.5968210576
  H         0.7772826862       10.1357331330        3.4802924603
  O         6.4163110171        8.5643272711       13.3210053202
  H         5.7165849344        7.8484358455       13.3869611029
  H         5.8034105641        9.3389615662       13.3142222179
  O         3.0061682999       14.3801963315        6.4353762825
  H         3.6204284461       13.6307199752        6.3354414853
  H         3.6729668001       15.1213085312        6.3185753501
  O         2.0694657548        8.5806695400       16.3549364536
  H         2.6592346475        7.7685907431       16.3556810744
  H         2.6854121258        9.3148272347       16.3197331255
  O         7.1448472121       14.3068061414        3.5623324398
  H         6.4554625329       13.6197577399        3.5314645133
  H         6.4893045416       14.8314687946        4.0461273648
 Si         8.8069696071       14.0816144452       12.0878430633
 Si         0.4670712559        8.8852852341        7.7892695808
 Si        -0.4557293361       14.0540917500       17.6870249457
 Si         9.6718342915        8.8513560846        2.2301486122
 Si         3.2970140735       10.2732802111       12.1303140171
 Si         5.9494112874       12.6505481159        7.7681178095
 Si         5.2057029485       10.2471553780       17.7195963242
 Si         4.1345218008       12.6128629191        2.1515991449
 Si         8.8747963880       10.7160168448       11.9003535875
 Si         0.4075697992       12.2661412641        7.8895004018
 Si        -0.3965943358       10.6616123687       17.6707400927
 Si         9.7566848619       12.1933183528        2.1205678096
 Si         3.3130016994       14.5196350519       11.9969147707
 Si         6.0074663970        8.3888863342        7.7665587869
 Si         5.1601750164       14.4669123203       17.7618725515
 Si         4.1764054535        8.3498589321        2.0803714572