672
Lattice="21.2695839169 0.0000000000 0.0000000000 0.0000000000 18.4200000000 0.0000000000 0.0000000000 0.0000000000 15.5600000000" Properties=species:S:1:pos:R:3 pbc="T T T"
Mg           0.0000000000        0.0000000000        0.0000000000
Al           2.6586979896        1.5350000000        0.0000000000
Al          21.2695839169        3.0700000000        0.0000000000
Mg           2.6586979896        4.6050000000        0.0000000000
Al          21.2695839169        6.1400000000        0.0000000000
Mg           2.6586979896        7.6750000000        0.0000000000
Mg          21.2695839169        9.2100000000        0.0000000000
Mg           2.6586979896       10.7450000000        0.0000000000
Mg          21.2695839169       12.2800000000        0.0000000000
Mg           2.6586979896       13.8150000000        0.0000000000
Al          21.2695839169       15.3500000000        0.0000000000
Al           2.6586979896       16.8850000000        0.0000000000
Mg           5.3173959792        0.0000000000        0.0000000000
Mg           7.9760939689        1.5350000000        0.0000000000
Mg           5.3173959792        3.0700000000        0.0000000000
Mg           7.9760939689        4.6050000000        0.0000000000
Mg           5.3173959792        6.1400000000        0.0000000000
Mg           7.9760939689        7.6750000000        0.0000000000
Al           5.3173959792        9.2100000000        0.0000000000
Al           7.9760939689       10.7450000000        0.0000000000
Al           5.3173959792       12.2800000000        0.0000000000
Al           7.9760939689       13.8150000000        0.0000000000
Al           5.3173959792       15.3500000000        0.0000000000
Mg           7.9760939689       16.8850000000        0.0000000000
Mg          10.6347919585        0.0000000000        0.0000000000
Mg          13.2934899481        1.5350000000        0.0000000000
Mg          10.6347919585        3.0700000000        0.0000000000
Mg          13.2934899481        4.6050000000        0.0000000000
Mg          10.6347919585        6.1400000000        0.0000000000
Mg          13.2934899481        7.6750000000        0.0000000000
Mg          10.6347919585        9.2100000000        0.0000000000
Mg          13.2934899481       10.7450000000        0.0000000000
Mg          10.6347919585       12.2800000000        0.0000000000
Mg          13.2934899481       13.8150000000        0.0000000000
Al          10.6347919585       15.3500000000        0.0000000000
Mg          13.2934899481       16.8850000000        0.0000000000
Mg          15.9521879377        0.0000000000        0.0000000000
Mg          18.6108859273        1.5350000000        0.0000000000
Mg          15.9521879377        3.0700000000        0.0000000000
Mg          18.6108859273        4.6050000000        0.0000000000
Mg          15.9521879377        6.1400000000        0.0000000000
Mg          18.6108859273        7.6750000000        0.0000000000
Mg          15.9521879377        9.2100000000        0.0000000000
Al          18.6108859273       10.7450000000        0.0000000000
Mg          15.9521879377       12.2800000000        0.0000000000
Mg          18.6108859273       13.8150000000        0.0000000000
Mg          15.9521879377       15.3500000000        0.0000000000
Mg          18.6108859273       16.8850000000        0.0000000000
O            0.8862326632        1.5350000000        1.0692364877
H            0.8862326632        1.5350000000        2.0392364877
O            3.5449306528        3.0700000000        1.0692364877
H            3.5449306528        3.0700000000        2.0392364877
O            0.8862326632        4.6050000000        1.0692364877
H            0.8862326632        4.6050000000        2.0392364877
O            3.5449306528        6.1400000000        1.0692364877
H            3.5449306528        6.1400000000        2.0392364877
O            0.8862326632        7.6750000000        1.0692364877
H            0.8862326632        7.6750000000        2.0392364877
O            3.5449306528        9.2100000000        1.0692364877
H            3.5449306528        9.2100000000        2.0392364877
O            0.8862326632       10.7450000000        1.0692364877
H            0.8862326632       10.7450000000        2.0392364877
O            3.5449306528       12.2800000000        1.0692364877
H            3.5449306528       12.2800000000        2.0392364877
O            0.8862326632       13.8150000000        1.0692364877
H            0.8862326632       13.8150000000        2.0392364877
O            3.5449306528       15.3500000000        1.0692364877
H            3.5449306528       15.3500000000        2.0392364877
O            0.8862326632       16.8850000000        1.0692364877
H            0.8862326632       16.8850000000        2.0392364877
O            3.5449306528        0.0000000000        1.0692364877
H            3.5449306528        0.0000000000        2.0392364877
O            6.2036286424        1.5350000000        1.0692364877
H            6.2036286424        1.5350000000        2.0392364877
O            8.8623266321        3.0700000000        1.0692364877
H            8.8623266321        3.0700000000        2.0392364877
O            6.2036286424        4.6050000000        1.0692364877
H            6.2036286424        4.6050000000        2.0392364877
O            8.8623266321        6.1400000000        1.0692364877
H            8.8623266321        6.1400000000        2.0392364877
O            6.2036286424        7.6750000000        1.0692364877
H            6.2036286424        7.6750000000        2.0392364877
O            8.8623266321        9.2100000000        1.0692364877
H            8.8623266321        9.2100000000        2.0392364877
O            6.2036286424       10.7450000000        1.0692364877
H            6.2036286424       10.7450000000        2.0392364877
O            8.8623266321       12.2800000000        1.0692364877
H            8.8623266321       12.2800000000        2.0392364877
O            6.2036286424       13.8150000000        1.0692364877
H            6.2036286424       13.8150000000        2.0392364877
O            8.8623266321       15.3500000000        1.0692364877
H            8.8623266321       15.3500000000        2.0392364877
O            6.2036286424       16.8850000000        1.0692364877
H            6.2036286424       16.8850000000        2.0392364877
O            8.8623266321        0.0000000000        1.0692364877
H            8.8623266321        0.0000000000        2.0392364877
O           11.5210246217        1.5350000000        1.0692364877
H           11.5210246217        1.5350000000        2.0392364877
O           14.1797226113        3.0700000000        1.0692364877
H           14.1797226113        3.0700000000        2.0392364877
O           11.5210246217        4.6050000000        1.0692364877
H           11.5210246217        4.6050000000        2.0392364877
O           14.1797226113        6.1400000000        1.0692364877
H           14.1797226113        6.1400000000        2.0392364877
O           11.5210246217        7.6750000000        1.0692364877
H           11.5210246217        7.6750000000        2.0392364877
O           14.1797226113        9.2100000000        1.0692364877
H           14.1797226113        9.2100000000        2.0392364877
O           11.5210246217       10.7450000000        1.0692364877
H           11.5210246217       10.7450000000        2.0392364877
O           14.1797226113       12.2800000000        1.0692364877
H           14.1797226113       12.2800000000        2.0392364877
O           11.5210246217       13.8150000000        1.0692364877
H           11.5210246217       13.8150000000        2.0392364877
O           14.1797226113       15.3500000000        1.0692364877
H           14.1797226113       15.3500000000        2.0392364877
O           11.5210246217       16.8850000000        1.0692364877
H           11.5210246217       16.8850000000        2.0392364877
O           14.1797226113        0.0000000000        1.0692364877
H           14.1797226113        0.0000000000        2.0392364877
O           16.8384206009        1.5350000000        1.0692364877
H           16.8384206009        1.5350000000        2.0392364877
O           19.4971185905        3.0700000000        1.0692364877
H           19.4971185905        3.0700000000        2.0392364877
O           16.8384206009        4.6050000000        1.0692364877
H           16.8384206009        4.6050000000        2.0392364877
O           19.4971185905        6.1400000000        1.0692364877
H           19.4971185905        6.1400000000        2.0392364877
O           16.8384206009        7.6750000000        1.0692364877
H           16.8384206009        7.6750000000        2.0392364877
O           19.4971185905        9.2100000000        1.0692364877
H           19.4971185905        9.2100000000        2.0392364877
O           16.8384206009       10.7450000000        1.0692364877
H           16.8384206009       10.7450000000        2.0392364877
O           19.4971185905       12.2800000000        1.0692364877
H           19.4971185905       12.2800000000        2.0392364877
O           16.8384206009       13.8150000000        1.0692364877
H           16.8384206009       13.8150000000        2.0392364877
O           19.4971185905       15.3500000000        1.0692364877
H           19.4971185905       15.3500000000        2.0392364877
O           16.8384206009       16.8850000000        1.0692364877
H           16.8384206009       16.8850000000        2.0392364877
O           19.4971185905        0.0000000000        1.0692364877
H           19.4971185905        0.0000000000        2.0392364877
O            1.7724653264        0.0000000000       14.4907635123
H            1.7724653264        0.0000000000       13.5207635123
O            4.4311633160        1.5350000000       14.4907635123
H            4.4311633160        1.5350000000       13.5207635123
O            1.7724653264        3.0700000000       14.4907635123
H            1.7724653264        3.0700000000       13.5207635123
O            4.4311633160        4.6050000000       14.4907635123
H            4.4311633160        4.6050000000       13.5207635123
O            1.7724653264        6.1400000000       14.4907635123
H            1.7724653264        6.1400000000       13.5207635123
O            4.4311633160        7.6750000000       14.4907635123
H            4.4311633160        7.6750000000       13.5207635123
O            1.7724653264        9.2100000000       14.4907635123
H            1.7724653264        9.2100000000       13.5207635123
O            4.4311633160       10.7450000000       14.4907635123
H            4.4311633160       10.7450000000       13.5207635123
O            1.7724653264       12.2800000000       14.4907635123
H            1.7724653264       12.2800000000       13.5207635123
O            4.4311633160       13.8150000000       14.4907635123
H            4.4311633160       13.8150000000       13.5207635123
O            1.7724653264       15.3500000000       14.4907635123
H            1.7724653264       15.3500000000       13.5207635123
O            4.4311633160       16.8850000000       14.4907635123
H            4.4311633160       16.8850000000       13.5207635123
O            7.0898613056        0.0000000000       14.4907635123
H            7.0898613056        0.0000000000       13.5207635123
O            9.7485592953        1.5350000000       14.4907635123
H            9.7485592953        1.5350000000       13.5207635123
O            7.0898613056        3.0700000000       14.4907635123
H            7.0898613056        3.0700000000       13.5207635123
O            9.7485592953        4.6050000000       14.4907635123
H            9.7485592953        4.6050000000       13.5207635123
O            7.0898613056        6.1400000000       14.4907635123
H            7.0898613056        6.1400000000       13.5207635123
O            9.7485592953        7.6750000000       14.4907635123
H            9.7485592953        7.6750000000       13.5207635123
O            7.0898613056        9.2100000000       14.4907635123
H            7.0898613056        9.2100000000       13.5207635123
O            9.7485592953       10.7450000000       14.4907635123
H            9.7485592953       10.7450000000       13.5207635123
O            7.0898613056       12.2800000000       14.4907635123
H            7.0898613056       12.2800000000       13.5207635123
O            9.7485592953       13.8150000000       14.4907635123
H            9.7485592953       13.8150000000       13.5207635123
O            7.0898613056       15.3500000000       14.4907635123
H            7.0898613056       15.3500000000       13.5207635123
O            9.7485592953       16.8850000000       14.4907635123
H            9.7485592953       16.8850000000       13.5207635123
O           12.4072572849        0.0000000000       14.4907635123
H           12.4072572849        0.0000000000       13.5207635123
O           15.0659552745        1.5350000000       14.4907635123
H           15.0659552745        1.5350000000       13.5207635123
O           12.4072572849        3.0700000000       14.4907635123
H           12.4072572849        3.0700000000       13.5207635123
O           15.0659552745        4.6050000000       14.4907635123
H           15.0659552745        4.6050000000       13.5207635123
O           12.4072572849        6.1400000000       14.4907635123
H           12.4072572849        6.1400000000       13.5207635123
O           15.0659552745        7.6750000000       14.4907635123
H           15.0659552745        7.6750000000       13.5207635123
O           12.4072572849        9.2100000000       14.4907635123
H           12.4072572849        9.2100000000       13.5207635123
O           15.0659552745       10.7450000000       14.4907635123
H           15.0659552745       10.7450000000       13.5207635123
O           12.4072572849       12.2800000000       14.4907635123
H           12.4072572849       12.2800000000       13.5207635123
O           15.0659552745       13.8150000000       14.4907635123
H           15.0659552745       13.8150000000       13.5207635123
O           12.4072572849       15.3500000000       14.4907635123
H           12.4072572849       15.3500000000       13.5207635123
O           15.0659552745       16.8850000000       14.4907635123
H           15.0659552745       16.8850000000       13.5207635123
O           17.7246532641        0.0000000000       14.4907635123
H           17.7246532641        0.0000000000       13.5207635123
O           20.3833512537        1.5350000000       14.4907635123
H           20.3833512537        1.5350000000       13.5207635123
O           17.7246532641        3.0700000000       14.4907635123
H           17.7246532641        3.0700000000       13.5207635123
O           20.3833512537        4.6050000000       14.4907635123
H           20.3833512537        4.6050000000       13.5207635123
O           17.7246532641        6.1400000000       14.4907635123
H           17.7246532641        6.1400000000       13.5207635123
O           20.3833512537        7.6750000000       14.4907635123
H           20.3833512537        7.6750000000       13.5207635123
O           17.7246532641        9.2100000000       14.4907635123
H           17.7246532641        9.2100000000       13.5207635123
O           20.3833512537       10.7450000000       14.4907635123
H           20.3833512537       10.7450000000       13.5207635123
O           17.7246532641       12.2800000000       14.4907635123
H           17.7246532641       12.2800000000       13.5207635123
O           20.3833512537       13.8150000000       14.4907635123
H           20.3833512537       13.8150000000       13.5207635123
O           17.7246532641       15.3500000000       14.4907635123
H           17.7246532641       15.3500000000       13.5207635123
O           20.3833512537       16.8850000000       14.4907635123
H           20.3833512537       16.8850000000       13.5207635123
Mg          21.2695839169       18.4200000000        7.7800000000
Al           2.6586979896        1.5350000000        7.7800000000
Mg          21.2695839169        3.0700000000        7.7800000000
Mg           2.6586979896        4.6050000000        7.7800000000
Mg          21.2695839169        6.1400000000        7.7800000000
Al           2.6586979896        7.6750000000        7.7800000000
Mg          21.2695839169        9.2100000000        7.7800000000
Al           2.6586979896       10.7450000000        7.7800000000
Mg          21.2695839169       12.2800000000        7.7800000000
Mg           2.6586979896       13.8150000000        7.7800000000
Mg          21.2695839169       15.3500000000        7.7800000000
Mg           2.6586979896       16.8850000000        7.7800000000
Mg           5.3173959792       18.4200000000        7.7800000000
Al           7.9760939689        1.5350000000        7.7800000000
Mg           5.3173959792        3.0700000000        7.7800000000
Mg           7.9760939689        4.6050000000        7.7800000000
Al           5.3173959792        6.1400000000        7.7800000000
Mg           7.9760939689        7.6750000000        7.7800000000
Mg           5.3173959792        9.2100000000        7.7800000000
Mg           7.9760939689       10.7450000000        7.7800000000
Al           5.3173959792       12.2800000000        7.7800000000
Mg           7.9760939689       13.8150000000        7.7800000000
Mg           5.3173959792       15.3500000000        7.7800000000
Al           7.9760939689       16.8850000000        7.7800000000
Al          10.6347919585       18.4200000000        7.7800000000
Mg          13.2934899481        1.5350000000        7.7800000000
Mg          10.6347919585        3.0700000000        7.7800000000
Al          13.2934899481        4.6050000000        7.7800000000
Mg          10.6347919585        6.1400000000        7.7800000000
Mg          13.2934899481        7.6750000000        7.7800000000
Mg          10.6347919585        9.2100000000        7.7800000000
Mg          13.2934899481       10.7450000000        7.7800000000
Mg          10.6347919585       12.2800000000        7.7800000000
Mg          13.2934899481       13.8150000000        7.7800000000
Mg          10.6347919585       15.3500000000        7.7800000000
Mg          13.2934899481       16.8850000000        7.7800000000
Al          15.9521879377       18.4200000000        7.7800000000
Mg          18.6108859273        1.5350000000        7.7800000000
Mg          15.9521879377        3.0700000000        7.7800000000
Al          18.6108859273        4.6050000000        7.7800000000
Mg          15.9521879377        6.1400000000        7.7800000000
Mg          18.6108859273        7.6750000000        7.7800000000
Mg          15.9521879377        9.2100000000        7.7800000000
Mg          18.6108859273       10.7450000000        7.7800000000
Mg          15.9521879377       12.2800000000        7.7800000000
Mg          18.6108859273       13.8150000000        7.7800000000
Al          15.9521879377       15.3500000000        7.7800000000
Mg          18.6108859273       16.8850000000        7.7800000000
O            0.8862326632        1.5350000000        8.8492364877
H            0.8862326632        1.5350000000        9.8192364877
O            3.5449306528        3.0700000000        8.8492364877
H            3.5449306528        3.0700000000        9.8192364877
O            0.8862326632        4.6050000000        8.8492364877
H            0.8862326632        4.6050000000        9.8192364877
O            3.5449306528        6.1400000000        8.8492364877
H            3.5449306528        6.1400000000        9.8192364877
O            0.8862326632        7.6750000000        8.8492364877
H            0.8862326632        7.6750000000        9.8192364877
O            3.5449306528        9.2100000000        8.8492364877
H            3.5449306528        9.2100000000        9.8192364877
O            0.8862326632       10.7450000000        8.8492364877
H            0.8862326632       10.7450000000        9.8192364877
O            3.5449306528       12.2800000000        8.8492364877
H            3.5449306528       12.2800000000        9.8192364877
O            0.8862326632       13.8150000000        8.8492364877
H            0.8862326632       13.8150000000        9.8192364877
O            3.5449306528       15.3500000000        8.8492364877
H            3.5449306528       15.3500000000        9.8192364877
O            0.8862326632       16.8850000000        8.8492364877
H            0.8862326632       16.8850000000        9.8192364877
O            3.5449306528        0.0000000000        8.8492364877
H            3.5449306528        0.0000000000        9.8192364877
O            6.2036286424        1.5350000000        8.8492364877
H            6.2036286424        1.5350000000        9.8192364877
O            8.8623266321        3.0700000000        8.8492364877
H            8.8623266321        3.0700000000        9.8192364877
O            6.2036286424        4.6050000000        8.8492364877
H            6.2036286424        4.6050000000        9.8192364877
O            8.8623266321        6.1400000000        8.8492364877
H            8.8623266321        6.1400000000        9.8192364877
O            6.2036286424        7.6750000000        8.8492364877
H            6.2036286424        7.6750000000        9.8192364877
O            8.8623266321        9.2100000000        8.8492364877
H            8.8623266321        9.2100000000        9.8192364877
O            6.2036286424       10.7450000000        8.8492364877
H            6.2036286424       10.7450000000        9.8192364877
O            8.8623266321       12.2800000000        8.8492364877
H            8.8623266321       12.2800000000        9.8192364877
O            6.2036286424       13.8150000000        8.8492364877
H            6.2036286424       13.8150000000        9.8192364877
O            8.8623266321       15.3500000000        8.8492364877
H            8.8623266321       15.3500000000        9.8192364877
O            6.2036286424       16.8850000000        8.8492364877
H            6.2036286424       16.8850000000        9.8192364877
O            8.8623266321        0.0000000000        8.8492364877
H            8.8623266321        0.0000000000        9.8192364877
O           11.5210246217        1.5350000000        8.8492364877
H           11.5210246217        1.5350000000        9.8192364877
O           14.1797226113        3.0700000000        8.8492364877
H           14.1797226113        3.0700000000        9.8192364877
O           11.5210246217        4.6050000000        8.8492364877
H           11.5210246217        4.6050000000        9.8192364877
O           14.1797226113        6.1400000000        8.8492364877
H           14.1797226113        6.1400000000        9.8192364877
O           11.5210246217        7.6750000000        8.8492364877
H           11.5210246217        7.6750000000        9.8192364877
O           14.1797226113        9.2100000000        8.8492364877
H           14.1797226113        9.2100000000        9.8192364877
O           11.5210246217       10.7450000000        8.8492364877
H           11.5210246217       10.7450000000        9.8192364877
O           14.1797226113       12.2800000000        8.8492364877
H           14.1797226113       12.2800000000        9.8192364877
O           11.5210246217       13.8150000000        8.8492364877
H           11.5210246217       13.8150000000        9.8192364877
O           14.1797226113       15.3500000000        8.8492364877
H           14.1797226113       15.3500000000        9.8192364877
O           11.5210246217       16.8850000000        8.8492364877
H           11.5210246217       16.8850000000        9.8192364877
O           14.1797226113        0.0000000000        8.8492364877
H           14.1797226113        0.0000000000        9.8192364877
O           16.8384206009        1.5350000000        8.8492364877
H           16.8384206009        1.5350000000        9.8192364877
O           19.4971185905        3.0700000000        8.8492364877
H           19.4971185905        3.0700000000        9.8192364877
O           16.8384206009        4.6050000000        8.8492364877
H           16.8384206009        4.6050000000        9.8192364877
O           19.4971185905        6.1400000000        8.8492364877
H           19.4971185905        6.1400000000        9.8192364877
O           16.8384206009        7.6750000000        8.8492364877
H           16.8384206009        7.6750000000        9.8192364877
O           19.4971185905        9.2100000000        8.8492364877
H           19.4971185905        9.2100000000        9.8192364877
O           16.8384206009       10.7450000000        8.8492364877
H           16.8384206009       10.7450000000        9.8192364877
O           19.4971185905       12.2800000000        8.8492364877
H           19.4971185905       12.2800000000        9.8192364877
O           16.8384206009       13.8150000000        8.8492364877
H           16.8384206009       13.8150000000        9.8192364877
O           19.4971185905       15.3500000000        8.8492364877
H           19.4971185905       15.3500000000        9.8192364877
O           16.8384206009       16.8850000000        8.8492364877
H           16.8384206009       16.8850000000        9.8192364877
O           19.4971185905        0.0000000000        8.8492364877
H           19.4971185905        0.0000000000        9.8192364877
O            1.7724653264       18.4200000000        6.7107635123
H            1.7724653264       18.4200000000        5.7407635123
O            4.4311633160        1.5350000000        6.7107635123
H            4.4311633160        1.5350000000        5.7407635123
O            1.7724653264        3.0700000000        6.7107635123
H            1.7724653264        3.0700000000        5.7407635123
O            4.4311633160        4.6050000000        6.7107635123
H            4.4311633160        4.6050000000        5.7407635123
O            1.7724653264        6.1400000000        6.7107635123
H            1.7724653264        6.1400000000        5.7407635123
O            4.4311633160        7.6750000000        6.7107635123
H            4.4311633160        7.6750000000        5.7407635123
O            1.7724653264        9.2100000000        6.7107635123
H            1.7724653264        9.2100000000        5.7407635123
O            4.4311633160       10.7450000000        6.7107635123
H            4.4311633160       10.7450000000        5.7407635123
O            1.7724653264       12.2800000000        6.7107635123
H            1.7724653264       12.2800000000        5.7407635123
O            4.4311633160       13.8150000000        6.7107635123
H            4.4311633160       13.8150000000        5.7407635123
O            1.7724653264       15.3500000000        6.7107635123
H            1.7724653264       15.3500000000        5.7407635123
O            4.4311633160       16.8850000000        6.7107635123
H            4.4311633160       16.8850000000        5.7407635123
O            7.0898613056       18.4200000000        6.7107635123
H            7.0898613056       18.4200000000        5.7407635123
O            9.7485592953        1.5350000000        6.7107635123
H            9.7485592953        1.5350000000        5.7407635123
O            7.0898613056        3.0700000000        6.7107635123
H            7.0898613056        3.0700000000        5.7407635123
O            9.7485592953        4.6050000000        6.7107635123
H            9.7485592953        4.6050000000        5.7407635123
O            7.0898613056        6.1400000000        6.7107635123
H            7.0898613056        6.1400000000        5.7407635123
O            9.7485592953        7.6750000000        6.7107635123
H            9.7485592953        7.6750000000        5.7407635123
O            7.0898613056        9.2100000000        6.7107635123
H            7.0898613056        9.2100000000        5.7407635123
O            9.7485592953       10.7450000000        6.7107635123
H            9.7485592953       10.7450000000        5.7407635123
O            7.0898613056       12.2800000000        6.7107635123
H            7.0898613056       12.2800000000        5.7407635123
O            9.7485592953       13.8150000000        6.7107635123
H            9.7485592953       13.8150000000        5.7407635123
O            7.0898613056       15.3500000000        6.7107635123
H            7.0898613056       15.3500000000        5.7407635123
O            9.7485592953       16.8850000000        6.7107635123
H            9.7485592953       16.8850000000        5.7407635123
O           12.4072572849       18.4200000000        6.7107635123
H           12.4072572849       18.4200000000        5.7407635123
O           15.0659552745        1.5350000000        6.7107635123
H           15.0659552745        1.5350000000        5.7407635123
O           12.4072572849        3.0700000000        6.7107635123
H           12.4072572849        3.0700000000        5.7407635123
O           15.0659552745        4.6050000000        6.7107635123
H           15.0659552745        4.6050000000        5.7407635123
O           12.4072572849        6.1400000000        6.7107635123
H           12.4072572849        6.1400000000        5.7407635123
O           15.0659552745        7.6750000000        6.7107635123
H           15.0659552745        7.6750000000        5.7407635123
O           12.4072572849        9.2100000000        6.7107635123
H           12.4072572849        9.2100000000        5.7407635123
O           15.0659552745       10.7450000000        6.7107635123
H           15.0659552745       10.7450000000        5.7407635123
O           12.4072572849       12.2800000000        6.7107635123
H           12.4072572849       12.2800000000        5.7407635123
O           15.0659552745       13.8150000000        6.7107635123
H           15.0659552745       13.8150000000        5.7407635123
O           12.4072572849       15.3500000000        6.7107635123
H           12.4072572849       15.3500000000        5.7407635123
O           15.0659552745       16.8850000000        6.7107635123
H           15.0659552745       16.8850000000        5.7407635123
O           17.7246532641       18.4200000000        6.7107635123
H           17.7246532641       18.4200000000        5.7407635123
O           20.3833512537        1.5350000000        6.7107635123
H           20.3833512537        1.5350000000        5.7407635123
O           17.7246532641        3.0700000000        6.7107635123
H           17.7246532641        3.0700000000        5.7407635123
O           20.3833512537        4.6050000000        6.7107635123
H           20.3833512537        4.6050000000        5.7407635123
O           17.7246532641        6.1400000000        6.7107635123
H           17.7246532641        6.1400000000        5.7407635123
O           20.3833512537        7.6750000000        6.7107635123
H           20.3833512537        7.6750000000        5.7407635123
O           17.7246532641        9.2100000000        6.7107635123
H           17.7246532641        9.2100000000        5.7407635123
O           20.3833512537       10.7450000000        6.7107635123
H           20.3833512537       10.7450000000        5.7407635123
O           17.7246532641       12.2800000000        6.7107635123
H           17.7246532641       12.2800000000        5.7407635123
O           20.3833512537       13.8150000000        6.7107635123
H           20.3833512537       13.8150000000        5.7407635123
O           17.7246532641       15.3500000000        6.7107635123
H           17.7246532641       15.3500000000        5.7407635123
O           20.3833512537       16.8850000000        6.7107635123
H           20.3833512537       16.8850000000        5.7407635123
C            4.9396235415       17.2432040449        3.9194862888
O            5.4534232255       18.3801662360        3.5917259180
O            3.6969572805       17.1705433046        4.2580139544
O            5.6684901186       16.1789025941        3.9087189939
C           13.5984234910        8.8085065733        3.7289155659
O           13.8710979587       10.0692710298        3.7140286627
O           12.3712313440        8.4146036100        3.7831363164
O           14.5529411703        7.9416450802        3.6895817187
C            6.5419427216        6.3246821489        4.0297640929
O            5.2914812153        6.0172547848        4.1067993903
O            7.4346041260        5.3937773795        4.0038425314
O            6.8997428235        7.5630142825        3.9786503571
C           11.0114955331        3.0258694250        3.5881845938
O           11.4308438285        1.8061668263        3.5642559931
O           11.8566310894        3.9969995142        3.6703566156
O            9.7470116813        3.2744419344        3.5299411726
C           15.7005876510       14.1273516229        4.0976958290
O           14.5485375483       13.5718195768        4.2658169363
O           16.7315731725       13.4032095226        3.8205910236
O           15.8216522322       15.4070257692        4.2066795272
C           19.8694847800        1.0096323183        3.6313145030
O           19.3811471278        2.1867390522        3.8314296562
O           19.0837165144       18.4091542474        3.5585632863
O           21.1435906977        0.8530036554        3.5039505666
O           12.8606393996       17.9713208618        3.5242563580
H           13.8008899239       17.9456845645        3.7162764915
H           12.5780087229       17.0558328286        3.5842693707
O            2.6607177543        5.8197402663        3.3461942252
H            2.5019121131        5.3738257615        4.1813834389
H            2.1198573298        6.6116750968        3.3898889101
O            0.4919985449        4.5256130383        4.4381104401
H            1.2312403464        4.5989008270        5.0461815369
H            0.8903408232        4.2582360422        3.6065859538
O            4.9234691961       11.9418367980        3.7042664999
H            5.8486621495       11.7687525877        3.5154283279
H            4.5597401617       11.0829370770        3.9314062337
O           18.5830182787        7.4736559831        3.5947402021
H           17.8123919641        8.0140327856        3.4057216990
H           18.2286146793        6.6911246241        4.0232758027
O            8.7676240495        0.7273562294        3.7896499296
H            8.0650079240        0.1168219927        4.0245510281
H            9.4961844266        0.1632250086        3.5202881977
O           14.3168225275        4.6745547409        4.3458358474
H           13.8043421211        5.1665215886        4.9915389168
H           13.8140716745        3.8693007200        4.2029808802
O            4.1639052226        3.4450046606        4.1830707678
H            4.9808656707        2.9771240462        3.9952853666
H            4.3651106467        4.3647645239        3.9955656448
O            7.4010165852       13.2201836102        3.5966181934
H            6.4916565044       13.4820993936        3.7580628149
H            7.4073543720       12.9240512783        2.6834558451
O            4.5743593692        8.7763376401        3.9946130750
H            3.8152837917        8.7899195922        4.5821671561
H            5.2845705978        9.1650879943        4.5104358866
O           12.8436034009       15.2282984399        3.6682929604
H           12.8182534507       14.2699881652        3.6173145597
H           11.9694767121       15.5072280991        3.3859796995
O            0.7726159180        7.7315439491        3.8938012351
H            0.6527992979        6.7801690424        3.9399506052
H            1.6227517789        7.8872912234        4.3116670084
O            9.0601486131        9.4713090513        3.9518549466
H            8.8892772911        9.8081343820        4.8344373438
H            9.4489616021        8.6055049632        4.0961038307
O           10.9060034471       12.6085961807        3.2855637223
H           10.3703978918       11.9557611274        2.8289094960
H           10.3169325140       12.9851751730        3.9434267007
O            0.3168751625       15.3550038878        3.6921695276
H            0.4789869403       15.7961920486        4.5292315195
H           20.7359425613       15.6934114391        3.4028565801
O           18.4808015540       10.7687070773        3.5627294588
H           17.9451540717       10.0287795067        3.2674516829
H           19.3561872333       10.5862451070        3.2134336790
O            1.5723727425       11.7886239472        3.2426950489
H            0.7045344284       11.8420211143        3.6496414865
H            2.0376081138       12.5635749752        3.5661250312
O           20.5554691708       12.6597586534        4.3462749343
H           19.8342810474       12.0468386299        4.1855990641
H           20.2450478124       13.4950848309        3.9892472639
O           20.7639845111        9.9182674349        4.2318036452
H           20.8762756224        9.1940152039        3.6117637979
H            0.3155925822        9.9388698545        4.7286127222
O           18.0408407091        4.5922354109        3.6292780721
H           17.2638039587        4.4432771425        4.1729924482
H           18.3546112466        3.7113682620        3.4119738711
O            2.7180628459        1.4307668241        3.8009189062
H            3.4547892430        1.7071311652        3.2509580287
H            2.4552092469        0.5804577263        3.4410822437
O           18.2676924144       15.7079920782        3.3475563084
H           17.8349708121       14.9954433565        3.8236091774
H           19.1912528539       15.6399976848        3.6005639703
O           16.0597673854        0.5693563505        3.9004181849
H           15.3813430279        1.2072834437        4.1336335681
H           16.3147518036        0.1730450823        4.7367915017
O            3.3391453771       14.6588847115        4.4257308525
H            3.9548201050       14.1162196677        3.9276753541
H            3.0198227562       15.3044070742        3.7909600726
C            6.6806560326        1.3243931645       11.3463413310
O            6.2403836124        2.5313917421       11.4621628731
O            5.8513062267        0.3379420107       11.2898345127
O            7.9502782589        1.1038457407       11.2870266073
C           19.5332390402        4.9430550495       11.9945539408
O           18.2811923014        4.8965717995       12.3016667401
O           20.2312348615        3.8585602156       11.9667548625
O           20.0872899576        6.0740331333       11.7152402198
C           11.0532677463       11.8069480541       11.5650883649
O           10.1222482460       12.6651276883       11.3184501569
O           10.8271578556       10.5467549972       11.4073297620
O           12.2103971372       12.2089614768       11.9694851757
C           16.2510958425       12.3266726327       11.8390382842
O           14.9909758267       12.0527470449       11.8731310710
O           17.1186442371       11.3720202686       11.8291061743
O           16.6436674638       13.5552505846       11.8148776073
C           14.8564114283        8.3255935889       11.4573365235
O           13.6048833183        8.0130064589       11.4655020639
O           15.7518958593        7.4001209011       11.3817856273
O           15.2124551072        9.5636534067       11.5247218794
C           20.5570737680       11.7017599410       11.4659316348
O           19.7757745634       10.7187570550       11.1703358311
O            0.5666507236       11.5558718657       11.3849123072
O           20.0592120999       12.8306509021       11.8425467662
O            8.5392684976       15.4602841037       12.3045017974
H            8.4375887558       15.0570549781       11.4392460535
H            7.8667068971       16.1447887956       12.3312266974
O            1.2644628761       17.3361458206       11.6159602051
H            1.9106665186       18.0133709920       11.4029181444
H            1.7190861285       16.5079850459       11.4454684764
O            1.4265967815        4.8496975488       11.5071943109
H            1.2097566087        5.4240040873       12.2452677079
H            1.1059423285        3.9848470086       11.7733038091
O            4.6931316576       10.9491798499       11.5509705961
H            4.1221842837       10.2372727943       11.2529648236
H            5.5752578417       10.6754070471       11.2892420198
O            2.7450175976       13.6647171344       11.4858800524
H            2.6523550652       14.5408684386       11.8671575723
H            1.9449923840       13.5413194400       10.9698057683
O           13.9710467920        4.5930909951       11.1108442413
H           13.7085167838        3.7283667610       11.4347732363
H           13.1454696155        5.0721452914       11.0082318303
O            2.2295371488        9.4938356158       11.5259356126
H            1.4024937503        9.4659542272       12.0125790603
H            2.9064639442        9.5418993052       12.2049496003
O           11.0845249961       14.9871822297       12.2085320474
H           11.4770559251       14.1814603590       11.8645382437
H           10.4757857864       15.2700237507       11.5222105130
O            6.5583155256       13.6811808952       12.0953120849
H            5.9030742944       13.0029091814       12.2747735327
H            7.1789304234       13.2627856086       11.4941610782
O            8.9152463698        3.1288792014       12.3346260557
H            9.8577524327        2.9983058420       12.4620345294
H            8.7588191862        2.8762348708       11.4217726291
O            8.1936585825        7.1592337611       11.0700713147
H            8.1690493921        8.0835833862       10.8120555044
H            9.0526492343        7.0480183887       11.4840353240
O           12.5629678309        2.4248236873       10.9763498500
H           13.2779012138        1.9334553592       10.5652204007
H           12.3532139961        1.9258520628       11.7692121626
O           11.1020573650        5.2294288182       12.2372318204
H           11.4756229978        4.6389306456       12.8955331390
H           10.4005411784        4.7186593571       11.8266351842
O            2.5952825150        2.6221784120       11.7155639066
H            3.3442761592        2.1766072851       12.1181491669
H            2.6279260492        3.5141867194       12.0689129965
O           19.6680636546       17.4870697648       11.6131261714
H           20.2285570852       18.1572116877       12.0110670180
H           20.0071773985       16.6563802329       11.9545302872
O           14.8397729586       15.9398702210       11.7032727131
H           14.2427832976       16.5113681660       12.1917329915
H           14.9883120841       15.1923497696       12.2870100710
O           10.4525555520        0.4337380981       10.8001165191
H           10.4604377811       17.9871183478       10.3871902800
H           10.1135453105        0.2756512403       11.6842435470
O            4.7419257312       15.6997173953       11.4717198107
H            4.0426188005       16.2613923231       11.8139055677
H            5.2016296431       15.3849555270       12.2535108823
O           10.8391166075        7.6471958186       11.8901854921
H           11.2066799216        6.7678010008       11.7754598864
H           10.3565615632        7.8139581316       11.0772088872
O            6.8256839499        9.7499340182       11.1954502289
H            6.7890357821        9.3811256264       10.3098785029
H            7.4376003751        9.1806635823       11.6677736980
O           16.8082119945        1.2826369752       12.3014574052
H           16.2617669477        0.6847846256       12.8167926156
H           17.5028199679        0.7250585696       11.9433707049
O           16.1521265899        3.5244739384       11.4814774575
H           15.7254525381        2.7457635353       11.8463875309
H           16.2215500293        3.3422713387       10.5414867135
O           17.9019462363        8.9741453605       10.9374041030
H           17.4147362244        9.4744635830       11.5961210987
H           18.0193811595        8.1071292803       11.3324891007
O           12.8082191506       17.2660630631       11.0075093177
H           12.9821096433       18.1029568854       11.4445114078
H           13.6125063889       17.0788649428       10.5179391981
