608
Lattice="21.2695839169 0.0000000000 0.0000000000 0.0000000000 18.4200000000 0.0000000000 0.0000000000 0.0000000000 15.5600000000" Properties=species:S:1:pos:R:3 pbc="T T T"
Mg           0.0000000000        0.0000000000        0.0000000000
Mg           2.6586979896        1.5350000000        0.0000000000
Al          21.2695839169        3.0700000000        0.0000000000
Mg           2.6586979896        4.6050000000        0.0000000000
Al          21.2695839169        6.1400000000        0.0000000000
Mg           2.6586979896        7.6750000000        0.0000000000
Mg          21.2695839169        9.2100000000        0.0000000000
Mg           2.6586979896       10.7450000000        0.0000000000
Mg          21.2695839169       12.2800000000        0.0000000000
Mg           2.6586979896       13.8150000000        0.0000000000
Mg          21.2695839169       15.3500000000        0.0000000000
Al           2.6586979896       16.8850000000        0.0000000000
Mg           5.3173959792        0.0000000000        0.0000000000
Mg           7.9760939689        1.5350000000        0.0000000000
Mg           5.3173959792        3.0700000000        0.0000000000
Mg           7.9760939689        4.6050000000        0.0000000000
Mg           5.3173959792        6.1400000000        0.0000000000
Mg           7.9760939689        7.6750000000        0.0000000000
Al           5.3173959792        9.2100000000        0.0000000000
Mg           7.9760939689       10.7450000000        0.0000000000
Al           5.3173959792       12.2800000000        0.0000000000
Al           7.9760939689       13.8150000000        0.0000000000
Mg           5.3173959792       15.3500000000        0.0000000000
Mg           7.9760939689       16.8850000000        0.0000000000
Mg          10.6347919585        0.0000000000        0.0000000000
Mg          13.2934899481        1.5350000000        0.0000000000
Mg          10.6347919585        3.0700000000        0.0000000000
Mg          13.2934899481        4.6050000000        0.0000000000
Mg          10.6347919585        6.1400000000        0.0000000000
Mg          13.2934899481        7.6750000000        0.0000000000
Mg          10.6347919585        9.2100000000        0.0000000000
Mg          13.2934899481       10.7450000000        0.0000000000
Mg          10.6347919585       12.2800000000        0.0000000000
Mg          13.2934899481       13.8150000000        0.0000000000
Al          10.6347919585       15.3500000000        0.0000000000
Mg          13.2934899481       16.8850000000        0.0000000000
Mg          15.9521879377        0.0000000000        0.0000000000
Mg          18.6108859273        1.5350000000        0.0000000000
Mg          15.9521879377        3.0700000000        0.0000000000
Mg          18.6108859273        4.6050000000        0.0000000000
Mg          15.9521879377        6.1400000000        0.0000000000
Mg          18.6108859273        7.6750000000        0.0000000000
Mg          15.9521879377        9.2100000000        0.0000000000
Al          18.6108859273       10.7450000000        0.0000000000
Mg          15.9521879377       12.2800000000        0.0000000000
Mg          18.6108859273       13.8150000000        0.0000000000
Mg          15.9521879377       15.3500000000        0.0000000000
Mg          18.6108859273       16.8850000000        0.0000000000
O            0.8862326632        1.5350000000        1.0692364877
H            0.8862326632        1.5350000000        2.0392364877
O            3.5449306528        3.0700000000        1.0692364877
H            3.5449306528        3.0700000000        2.0392364877
O            0.8862326632        4.6050000000        1.0692364877
H            0.8862326632        4.6050000000        2.0392364877
O            3.5449306528        6.1400000000        1.0692364877
H            3.5449306528        6.1400000000        2.0392364877
O            0.8862326632        7.6750000000        1.0692364877
H            0.8862326632        7.6750000000        2.0392364877
O            3.5449306528        9.2100000000        1.0692364877
H            3.5449306528        9.2100000000        2.0392364877
O            0.8862326632       10.7450000000        1.0692364877
H            0.8862326632       10.7450000000        2.0392364877
O            3.5449306528       12.2800000000        1.0692364877
H            3.5449306528       12.2800000000        2.0392364877
O            0.8862326632       13.8150000000        1.0692364877
H            0.8862326632       13.8150000000        2.0392364877
O            3.5449306528       15.3500000000        1.0692364877
H            3.5449306528       15.3500000000        2.0392364877
O            0.8862326632       16.8850000000        1.0692364877
H            0.8862326632       16.8850000000        2.0392364877
O            3.5449306528        0.0000000000        1.0692364877
H            3.5449306528        0.0000000000        2.0392364877
O            6.2036286424        1.5350000000        1.0692364877
H            6.2036286424        1.5350000000        2.0392364877
O            8.8623266321        3.0700000000        1.0692364877
H            8.8623266321        3.0700000000        2.0392364877
O            6.2036286424        4.6050000000        1.0692364877
H            6.2036286424        4.6050000000        2.0392364877
O            8.8623266321        6.1400000000        1.0692364877
H            8.8623266321        6.1400000000        2.0392364877
O            6.2036286424        7.6750000000        1.0692364877
H            6.2036286424        7.6750000000        2.0392364877
O            8.8623266321        9.2100000000        1.0692364877
H            8.8623266321        9.2100000000        2.0392364877
O            6.2036286424       10.7450000000        1.0692364877
H            6.2036286424       10.7450000000        2.0392364877
O            8.8623266321       12.2800000000        1.0692364877
H            8.8623266321       12.2800000000        2.0392364877
O            6.2036286424       13.8150000000        1.0692364877
H            6.2036286424       13.8150000000        2.0392364877
O            8.8623266321       15.3500000000        1.0692364877
H            8.8623266321       15.3500000000        2.0392364877
O            6.2036286424       16.8850000000        1.0692364877
H            6.2036286424       16.8850000000        2.0392364877
O            8.8623266321        0.0000000000        1.0692364877
H            8.8623266321        0.0000000000        2.0392364877
O           11.5210246217        1.5350000000        1.0692364877
H           11.5210246217        1.5350000000        2.0392364877
O           14.1797226113        3.0700000000        1.0692364877
H           14.1797226113        3.0700000000        2.0392364877
O           11.5210246217        4.6050000000        1.0692364877
H           11.5210246217        4.6050000000        2.0392364877
O           14.1797226113        6.1400000000        1.0692364877
H           14.1797226113        6.1400000000        2.0392364877
O           11.5210246217        7.6750000000        1.0692364877
H           11.5210246217        7.6750000000        2.0392364877
O           14.1797226113        9.2100000000        1.0692364877
H           14.1797226113        9.2100000000        2.0392364877
O           11.5210246217       10.7450000000        1.0692364877
H           11.5210246217       10.7450000000        2.0392364877
O           14.1797226113       12.2800000000        1.0692364877
H           14.1797226113       12.2800000000        2.0392364877
O           11.5210246217       13.8150000000        1.0692364877
H           11.5210246217       13.8150000000        2.0392364877
O           14.1797226113       15.3500000000        1.0692364877
H           14.1797226113       15.3500000000        2.0392364877
O           11.5210246217       16.8850000000        1.0692364877
H           11.5210246217       16.8850000000        2.0392364877
O           14.1797226113        0.0000000000        1.0692364877
H           14.1797226113        0.0000000000        2.0392364877
O           16.8384206009        1.5350000000        1.0692364877
H           16.8384206009        1.5350000000        2.0392364877
O           19.4971185905        3.0700000000        1.0692364877
H           19.4971185905        3.0700000000        2.0392364877
O           16.8384206009        4.6050000000        1.0692364877
H           16.8384206009        4.6050000000        2.0392364877
O           19.4971185905        6.1400000000        1.0692364877
H           19.4971185905        6.1400000000        2.0392364877
O           16.8384206009        7.6750000000        1.0692364877
H           16.8384206009        7.6750000000        2.0392364877
O           19.4971185905        9.2100000000        1.0692364877
H           19.4971185905        9.2100000000        2.0392364877
O           16.8384206009       10.7450000000        1.0692364877
H           16.8384206009       10.7450000000        2.0392364877
O           19.4971185905       12.2800000000        1.0692364877
H           19.4971185905       12.2800000000        2.0392364877
O           16.8384206009       13.8150000000        1.0692364877
H           16.8384206009       13.8150000000        2.0392364877
O           19.4971185905       15.3500000000        1.0692364877
H           19.4971185905       15.3500000000        2.0392364877
O           16.8384206009       16.8850000000        1.0692364877
H           16.8384206009       16.8850000000        2.0392364877
O           19.4971185905        0.0000000000        1.0692364877
H           19.4971185905        0.0000000000        2.0392364877
O            1.7724653264        0.0000000000       14.4907635123
H            1.7724653264        0.0000000000       13.5207635123
O            4.4311633160        1.5350000000       14.4907635123
H            4.4311633160        1.5350000000       13.5207635123
O            1.7724653264        3.0700000000       14.4907635123
H            1.7724653264        3.0700000000       13.5207635123
O            4.4311633160        4.6050000000       14.4907635123
H            4.4311633160        4.6050000000       13.5207635123
O            1.7724653264        6.1400000000       14.4907635123
H            1.7724653264        6.1400000000       13.5207635123
O            4.4311633160        7.6750000000       14.4907635123
H            4.4311633160        7.6750000000       13.5207635123
O            1.7724653264        9.2100000000       14.4907635123
H            1.7724653264        9.2100000000       13.5207635123
O            4.4311633160       10.7450000000       14.4907635123
H            4.4311633160       10.7450000000       13.5207635123
O            1.7724653264       12.2800000000       14.4907635123
H            1.7724653264       12.2800000000       13.5207635123
O            4.4311633160       13.8150000000       14.4907635123
H            4.4311633160       13.8150000000       13.5207635123
O            1.7724653264       15.3500000000       14.4907635123
H            1.7724653264       15.3500000000       13.5207635123
O            4.4311633160       16.8850000000       14.4907635123
H            4.4311633160       16.8850000000       13.5207635123
O            7.0898613056        0.0000000000       14.4907635123
H            7.0898613056        0.0000000000       13.5207635123
O            9.7485592953        1.5350000000       14.4907635123
H            9.7485592953        1.5350000000       13.5207635123
O            7.0898613056        3.0700000000       14.4907635123
H            7.0898613056        3.0700000000       13.5207635123
O            9.7485592953        4.6050000000       14.4907635123
H            9.7485592953        4.6050000000       13.5207635123
O            7.0898613056        6.1400000000       14.4907635123
H            7.0898613056        6.1400000000       13.5207635123
O            9.7485592953        7.6750000000       14.4907635123
H            9.7485592953        7.6750000000       13.5207635123
O            7.0898613056        9.2100000000       14.4907635123
H            7.0898613056        9.2100000000       13.5207635123
O            9.7485592953       10.7450000000       14.4907635123
H            9.7485592953       10.7450000000       13.5207635123
O            7.0898613056       12.2800000000       14.4907635123
H            7.0898613056       12.2800000000       13.5207635123
O            9.7485592953       13.8150000000       14.4907635123
H            9.7485592953       13.8150000000       13.5207635123
O            7.0898613056       15.3500000000       14.4907635123
H            7.0898613056       15.3500000000       13.5207635123
O            9.7485592953       16.8850000000       14.4907635123
H            9.7485592953       16.8850000000       13.5207635123
O           12.4072572849        0.0000000000       14.4907635123
H           12.4072572849        0.0000000000       13.5207635123
O           15.0659552745        1.5350000000       14.4907635123
H           15.0659552745        1.5350000000       13.5207635123
O           12.4072572849        3.0700000000       14.4907635123
H           12.4072572849        3.0700000000       13.5207635123
O           15.0659552745        4.6050000000       14.4907635123
H           15.0659552745        4.6050000000       13.5207635123
O           12.4072572849        6.1400000000       14.4907635123
H           12.4072572849        6.1400000000       13.5207635123
O           15.0659552745        7.6750000000       14.4907635123
H           15.0659552745        7.6750000000       13.5207635123
O           12.4072572849        9.2100000000       14.4907635123
H           12.4072572849        9.2100000000       13.5207635123
O           15.0659552745       10.7450000000       14.4907635123
H           15.0659552745       10.7450000000       13.5207635123
O           12.4072572849       12.2800000000       14.4907635123
H           12.4072572849       12.2800000000       13.5207635123
O           15.0659552745       13.8150000000       14.4907635123
H           15.0659552745       13.8150000000       13.5207635123
O           12.4072572849       15.3500000000       14.4907635123
H           12.4072572849       15.3500000000       13.5207635123
O           15.0659552745       16.8850000000       14.4907635123
H           15.0659552745       16.8850000000       13.5207635123
O           17.7246532641        0.0000000000       14.4907635123
H           17.7246532641        0.0000000000       13.5207635123
O           20.3833512537        1.5350000000       14.4907635123
H           20.3833512537        1.5350000000       13.5207635123
O           17.7246532641        3.0700000000       14.4907635123
H           17.7246532641        3.0700000000       13.5207635123
O           20.3833512537        4.6050000000       14.4907635123
H           20.3833512537        4.6050000000       13.5207635123
O           17.7246532641        6.1400000000       14.4907635123
H           17.7246532641        6.1400000000       13.5207635123
O           20.3833512537        7.6750000000       14.4907635123
H           20.3833512537        7.6750000000       13.5207635123
O           17.7246532641        9.2100000000       14.4907635123
H           17.7246532641        9.2100000000       13.5207635123
O           20.3833512537       10.7450000000       14.4907635123
H           20.3833512537       10.7450000000       13.5207635123
O           17.7246532641       12.2800000000       14.4907635123
H           17.7246532641       12.2800000000       13.5207635123
O           20.3833512537       13.8150000000       14.4907635123
H           20.3833512537       13.8150000000       13.5207635123
O           17.7246532641       15.3500000000       14.4907635123
H           17.7246532641       15.3500000000       13.5207635123
O           20.3833512537       16.8850000000       14.4907635123
H           20.3833512537       16.8850000000       13.5207635123
Mg          21.2695839169       18.4200000000        7.7800000000
Al           2.6586979896        1.5350000000        7.7800000000
Mg          21.2695839169        3.0700000000        7.7800000000
Mg           2.6586979896        4.6050000000        7.7800000000
Mg          21.2695839169        6.1400000000        7.7800000000
Al           2.6586979896        7.6750000000        7.7800000000
Mg          21.2695839169        9.2100000000        7.7800000000
Al           2.6586979896       10.7450000000        7.7800000000
Mg          21.2695839169       12.2800000000        7.7800000000
Mg           2.6586979896       13.8150000000        7.7800000000
Mg          21.2695839169       15.3500000000        7.7800000000
Mg           2.6586979896       16.8850000000        7.7800000000
Mg           5.3173959792       18.4200000000        7.7800000000
Mg           7.9760939689        1.5350000000        7.7800000000
Mg           5.3173959792        3.0700000000        7.7800000000
Mg           7.9760939689        4.6050000000        7.7800000000
Al           5.3173959792        6.1400000000        7.7800000000
Mg           7.9760939689        7.6750000000        7.7800000000
Mg           5.3173959792        9.2100000000        7.7800000000
Mg           7.9760939689       10.7450000000        7.7800000000
Al           5.3173959792       12.2800000000        7.7800000000
Mg           7.9760939689       13.8150000000        7.7800000000
Mg           5.3173959792       15.3500000000        7.7800000000
Al           7.9760939689       16.8850000000        7.7800000000
Mg          10.6347919585       18.4200000000        7.7800000000
Mg          13.2934899481        1.5350000000        7.7800000000
Mg          10.6347919585        3.0700000000        7.7800000000
Mg          13.2934899481        4.6050000000        7.7800000000
Mg          10.6347919585        6.1400000000        7.7800000000
Mg          13.2934899481        7.6750000000        7.7800000000
Mg          10.6347919585        9.2100000000        7.7800000000
Mg          13.2934899481       10.7450000000        7.7800000000
Mg          10.6347919585       12.2800000000        7.7800000000
Mg          13.2934899481       13.8150000000        7.7800000000
Mg          10.6347919585       15.3500000000        7.7800000000
Mg          13.2934899481       16.8850000000        7.7800000000
Al          15.9521879377       18.4200000000        7.7800000000
Mg          18.6108859273        1.5350000000        7.7800000000
Mg          15.9521879377        3.0700000000        7.7800000000
Mg          18.6108859273        4.6050000000        7.7800000000
Mg          15.9521879377        6.1400000000        7.7800000000
Mg          18.6108859273        7.6750000000        7.7800000000
Mg          15.9521879377        9.2100000000        7.7800000000
Mg          18.6108859273       10.7450000000        7.7800000000
Mg          15.9521879377       12.2800000000        7.7800000000
Mg          18.6108859273       13.8150000000        7.7800000000
Al          15.9521879377       15.3500000000        7.7800000000
Mg          18.6108859273       16.8850000000        7.7800000000
O            0.8862326632        1.5350000000        8.8492364877
H            0.8862326632        1.5350000000        9.8192364877
O            3.5449306528        3.0700000000        8.8492364877
H            3.5449306528        3.0700000000        9.8192364877
O            0.8862326632        4.6050000000        8.8492364877
H            0.8862326632        4.6050000000        9.8192364877
O            3.5449306528        6.1400000000        8.8492364877
H            3.5449306528        6.1400000000        9.8192364877
O            0.8862326632        7.6750000000        8.8492364877
H            0.8862326632        7.6750000000        9.8192364877
O            3.5449306528        9.2100000000        8.8492364877
H            3.5449306528        9.2100000000        9.8192364877
O            0.8862326632       10.7450000000        8.8492364877
H            0.8862326632       10.7450000000        9.8192364877
O            3.5449306528       12.2800000000        8.8492364877
H            3.5449306528       12.2800000000        9.8192364877
O            0.8862326632       13.8150000000        8.8492364877
H            0.8862326632       13.8150000000        9.8192364877
O            3.5449306528       15.3500000000        8.8492364877
H            3.5449306528       15.3500000000        9.8192364877
O            0.8862326632       16.8850000000        8.8492364877
H            0.8862326632       16.8850000000        9.8192364877
O            3.5449306528        0.0000000000        8.8492364877
H            3.5449306528        0.0000000000        9.8192364877
O            6.2036286424        1.5350000000        8.8492364877
H            6.2036286424        1.5350000000        9.8192364877
O            8.8623266321        3.0700000000        8.8492364877
H            8.8623266321        3.0700000000        9.8192364877
O            6.2036286424        4.6050000000        8.8492364877
H            6.2036286424        4.6050000000        9.8192364877
O            8.8623266321        6.1400000000        8.8492364877
H            8.8623266321        6.1400000000        9.8192364877
O            6.2036286424        7.6750000000        8.8492364877
H            6.2036286424        7.6750000000        9.8192364877
O            8.8623266321        9.2100000000        8.8492364877
H            8.8623266321        9.2100000000        9.8192364877
O            6.2036286424       10.7450000000        8.8492364877
H            6.2036286424       10.7450000000        9.8192364877
O            8.8623266321       12.2800000000        8.8492364877
H            8.8623266321       12.2800000000        9.8192364877
O            6.2036286424       13.8150000000        8.8492364877
H            6.2036286424       13.8150000000        9.8192364877
O            8.8623266321       15.3500000000        8.8492364877
H            8.8623266321       15.3500000000        9.8192364877
O            6.2036286424       16.8850000000        8.8492364877
H            6.2036286424       16.8850000000        9.8192364877
O            8.8623266321        0.0000000000        8.8492364877
H            8.8623266321        0.0000000000        9.8192364877
O           11.5210246217        1.5350000000        8.8492364877
H           11.5210246217        1.5350000000        9.8192364877
O           14.1797226113        3.0700000000        8.8492364877
H           14.1797226113        3.0700000000        9.8192364877
O           11.5210246217        4.6050000000        8.8492364877
H           11.5210246217        4.6050000000        9.8192364877
O           14.1797226113        6.1400000000        8.8492364877
H           14.1797226113        6.1400000000        9.8192364877
O           11.5210246217        7.6750000000        8.8492364877
H           11.5210246217        7.6750000000        9.8192364877
O           14.1797226113        9.2100000000        8.8492364877
H           14.1797226113        9.2100000000        9.8192364877
O           11.5210246217       10.7450000000        8.8492364877
H           11.5210246217       10.7450000000        9.8192364877
O           14.1797226113       12.2800000000        8.8492364877
H           14.1797226113       12.2800000000        9.8192364877
O           11.5210246217       13.8150000000        8.8492364877
H           11.5210246217       13.8150000000        9.8192364877
O           14.1797226113       15.3500000000        8.8492364877
H           14.1797226113       15.3500000000        9.8192364877
O           11.5210246217       16.8850000000        8.8492364877
H           11.5210246217       16.8850000000        9.8192364877
O           14.1797226113        0.0000000000        8.8492364877
H           14.1797226113        0.0000000000        9.8192364877
O           16.8384206009        1.5350000000        8.8492364877
H           16.8384206009        1.5350000000        9.8192364877
O           19.4971185905        3.0700000000        8.8492364877
H           19.4971185905        3.0700000000        9.8192364877
O           16.8384206009        4.6050000000        8.8492364877
H           16.8384206009        4.6050000000        9.8192364877
O           19.4971185905        6.1400000000        8.8492364877
H           19.4971185905        6.1400000000        9.8192364877
O           16.8384206009        7.6750000000        8.8492364877
H           16.8384206009        7.6750000000        9.8192364877
O           19.4971185905        9.2100000000        8.8492364877
H           19.4971185905        9.2100000000        9.8192364877
O           16.8384206009       10.7450000000        8.8492364877
H           16.8384206009       10.7450000000        9.8192364877
O           19.4971185905       12.2800000000        8.8492364877
H           19.4971185905       12.2800000000        9.8192364877
O           16.8384206009       13.8150000000        8.8492364877
H           16.8384206009       13.8150000000        9.8192364877
O           19.4971185905       15.3500000000        8.8492364877
H           19.4971185905       15.3500000000        9.8192364877
O           16.8384206009       16.8850000000        8.8492364877
H           16.8384206009       16.8850000000        9.8192364877
O           19.4971185905        0.0000000000        8.8492364877
H           19.4971185905        0.0000000000        9.8192364877
O            1.7724653264       18.4200000000        6.7107635123
H            1.7724653264       18.4200000000        5.7407635123
O            4.4311633160        1.5350000000        6.7107635123
H            4.4311633160        1.5350000000        5.7407635123
O            1.7724653264        3.0700000000        6.7107635123
H            1.7724653264        3.0700000000        5.7407635123
O            4.4311633160        4.6050000000        6.7107635123
H            4.4311633160        4.6050000000        5.7407635123
O            1.7724653264        6.1400000000        6.7107635123
H            1.7724653264        6.1400000000        5.7407635123
O            4.4311633160        7.6750000000        6.7107635123
H            4.4311633160        7.6750000000        5.7407635123
O            1.7724653264        9.2100000000        6.7107635123
H            1.7724653264        9.2100000000        5.7407635123
O            4.4311633160       10.7450000000        6.7107635123
H            4.4311633160       10.7450000000        5.7407635123
O            1.7724653264       12.2800000000        6.7107635123
H            1.7724653264       12.2800000000        5.7407635123
O            4.4311633160       13.8150000000        6.7107635123
H            4.4311633160       13.8150000000        5.7407635123
O            1.7724653264       15.3500000000        6.7107635123
H            1.7724653264       15.3500000000        5.7407635123
O            4.4311633160       16.8850000000        6.7107635123
H            4.4311633160       16.8850000000        5.7407635123
O            7.0898613056       18.4200000000        6.7107635123
H            7.0898613056       18.4200000000        5.7407635123
O            9.7485592953        1.5350000000        6.7107635123
H            9.7485592953        1.5350000000        5.7407635123
O            7.0898613056        3.0700000000        6.7107635123
H            7.0898613056        3.0700000000        5.7407635123
O            9.7485592953        4.6050000000        6.7107635123
H            9.7485592953        4.6050000000        5.7407635123
O            7.0898613056        6.1400000000        6.7107635123
H            7.0898613056        6.1400000000        5.7407635123
O            9.7485592953        7.6750000000        6.7107635123
H            9.7485592953        7.6750000000        5.7407635123
O            7.0898613056        9.2100000000        6.7107635123
H            7.0898613056        9.2100000000        5.7407635123
O            9.7485592953       10.7450000000        6.7107635123
H            9.7485592953       10.7450000000        5.7407635123
O            7.0898613056       12.2800000000        6.7107635123
H            7.0898613056       12.2800000000        5.7407635123
O            9.7485592953       13.8150000000        6.7107635123
H            9.7485592953       13.8150000000        5.7407635123
O            7.0898613056       15.3500000000        6.7107635123
H            7.0898613056       15.3500000000        5.7407635123
O            9.7485592953       16.8850000000        6.7107635123
H            9.7485592953       16.8850000000        5.7407635123
O           12.4072572849       18.4200000000        6.7107635123
H           12.4072572849       18.4200000000        5.7407635123
O           15.0659552745        1.5350000000        6.7107635123
H           15.0659552745        1.5350000000        5.7407635123
O           12.4072572849        3.0700000000        6.7107635123
H           12.4072572849        3.0700000000        5.7407635123
O           15.0659552745        4.6050000000        6.7107635123
H           15.0659552745        4.6050000000        5.7407635123
O           12.4072572849        6.1400000000        6.7107635123
H           12.4072572849        6.1400000000        5.7407635123
O           15.0659552745        7.6750000000        6.7107635123
H           15.0659552745        7.6750000000        5.7407635123
O           12.4072572849        9.2100000000        6.7107635123
H           12.4072572849        9.2100000000        5.7407635123
O           15.0659552745       10.7450000000        6.7107635123
H           15.0659552745       10.7450000000        5.7407635123
O           12.4072572849       12.2800000000        6.7107635123
H           12.4072572849       12.2800000000        5.7407635123
O           15.0659552745       13.8150000000        6.7107635123
H           15.0659552745       13.8150000000        5.7407635123
O           12.4072572849       15.3500000000        6.7107635123
H           12.4072572849       15.3500000000        5.7407635123
O           15.0659552745       16.8850000000        6.7107635123
H           15.0659552745       16.8850000000        5.7407635123
O           17.7246532641       18.4200000000        6.7107635123
H           17.7246532641       18.4200000000        5.7407635123
O           20.3833512537        1.5350000000        6.7107635123
H           20.3833512537        1.5350000000        5.7407635123
O           17.7246532641        3.0700000000        6.7107635123
H           17.7246532641        3.0700000000        5.7407635123
O           20.3833512537        4.6050000000        6.7107635123
H           20.3833512537        4.6050000000        5.7407635123
O           17.7246532641        6.1400000000        6.7107635123
H           17.7246532641        6.1400000000        5.7407635123
O           20.3833512537        7.6750000000        6.7107635123
H           20.3833512537        7.6750000000        5.7407635123
O           17.7246532641        9.2100000000        6.7107635123
H           17.7246532641        9.2100000000        5.7407635123
O           20.3833512537       10.7450000000        6.7107635123
H           20.3833512537       10.7450000000        5.7407635123
O           17.7246532641       12.2800000000        6.7107635123
H           17.7246532641       12.2800000000        5.7407635123
O           20.3833512537       13.8150000000        6.7107635123
H           20.3833512537       13.8150000000        5.7407635123
O           17.7246532641       15.3500000000        6.7107635123
H           17.7246532641       15.3500000000        5.7407635123
O           20.3833512537       16.8850000000        6.7107635123
H           20.3833512537       16.8850000000        5.7407635123
C            4.5015349060       12.9596699362        3.7976615634
O            5.7900140850       13.0222902745        3.7973477593
O            3.8030650812       14.0442137516        3.7998101356
O            3.9115255518       11.8125057825        3.7958267952
C           11.4919254061       12.3440050561        3.9194862888
O           12.0057250902       13.4809672472        3.5917259180
O           10.2492591451       12.2713443158        4.2580139544
O           12.2207919832       11.2797036053        3.9087189939
C           11.6806333845        6.4056332167        3.7289155659
O           11.9533078522        7.6663976732        3.7140286627
O           10.4534412375        6.0117302533        3.7831363164
O           12.6351510638        5.5387717235        3.6895817187
C            2.8600324228        7.9058526862        4.0297640929
O            1.6095709165        7.5984253220        4.1067993903
O            3.7526938271        6.9749479167        4.0038425314
O            3.2178325247        9.1441848197        3.9786503571
O            0.8833427067       16.7650905608        4.2887209410
H           21.2110964737       16.9286237646        4.3771113250
H            0.9493909746       15.8207766975        4.1290057138
O           15.3556947120        0.6089661011        4.2915099478
H           14.8855864724       18.3291806602        3.8322729939
H           15.7544954975        0.1739130262        5.0486669695
O            6.0511135510       15.7050912460        4.3903770066
H            5.1094868719       15.7654322324        4.5672898739
H            6.2613710044       14.7776229994        4.5215046351
O           18.2275472290       13.2121988041        3.6305438135
H           18.7146217479       13.9623331224        3.2817502965
H           17.7499374620       12.8631497153        2.8744660105
O           17.8315478719        7.4507283987        4.2179558507
H           18.4922598665        6.8124801233        4.4967008941
H           17.3509590941        7.6653902726        5.0207974954
O            5.8149048412        9.7832610708        3.6723470981
H            5.8573733552        9.5647420884        4.6061810660
H            5.0949404799       10.4147817389        3.6057665886
O           13.1278763144       15.5878681480        4.3319972914
H           14.0240276416       15.7767837595        4.0442062378
H           12.7078511252       16.4490727917        4.3912037285
O           10.3511000324        9.6566351102        3.1409959293
H            9.9851480567        9.0538151067        3.7923692439
H           10.4211849229        9.1316853454        2.3402988252
O            0.7204669876       13.1930451846        4.4522821621
H            0.2114095015       13.7283363823        3.8391559031
H            1.6017604896       13.1652014130        4.0726158774
O            2.9254900215        4.0337073540        4.3996818612
H            2.7587514885        3.6712942388        3.5264951713
H            2.7549683522        4.9738165598        4.3063167630
O           17.1839294812       16.9784307940        3.8126640001
H           16.7209346723       17.8076772721        3.6727137037
H           18.0974862042       17.1727835830        3.5907606265
O           15.3661785942       12.0140402630        3.4534174034
H           16.2666487411       11.6884581277        3.3844987004
H           15.4301310539       12.7770762053        4.0324564640
O            8.0571573898        7.4542607106        3.9864028201
H            7.5797276530        6.9674432698        3.3106294663
H            8.7101809139        7.9628687871        3.5001126788
O           11.3070272476        1.0948855364        4.3801195396
H           11.1643871428        2.0037957334        4.1060099734
H           10.4274460362        0.7600537814        4.5693933843
O            7.8426610342       17.2139799646        3.5128477136
H            8.6581769777       16.7562882799        3.7297625993
H            7.7445738045       17.8715673852        4.2053487459
O           19.6829466220       18.0235237103        3.7561918250
H           19.9465481579       17.2222551097        3.2978438568
H           20.4923844654       18.3483338480        4.1573261568
C           18.4212393329        9.9303941405       11.5714036501
O           18.4951727128        8.6433617547       11.5246971902
O           19.4995408602       10.6374443418       11.6094277083
O           17.2690044255       10.5103763249       11.5800860518
C           19.9976428982        5.4845350123       11.3571384809
O           20.5026489309        4.2993546242       11.2906828221
O           20.7726720490        6.5154889130       11.3808844280
O           18.7176077147        5.6387614997       11.3998481926
C           12.4277813117       10.4903051436       12.0118823886
O           11.6503864930       11.4929251037       12.2453572512
O           11.9486824599        9.2926790087       11.9958845316
O           13.6842749822       10.6853113182       11.7944053831
C            2.5523951390       12.8802616837       11.8954501788
O            1.5048763397       12.1282894753       11.9320857210
O            3.7241419159       12.3617419068       12.0446035619
O            2.4281671613       14.1507536690       11.7096612534
O           10.3974567517       15.6054869428       11.6738012351
H           10.2776401317       14.6541120360       11.7199506052
H           11.2475926126       15.7612342171       12.0916670084
O           16.1015115188       15.5647019406       11.0226950489
H           15.2336732047       15.6180991077       11.4296414865
H           16.5667468901       16.3396529686       11.3461250312
O           18.1594812500       13.2099570565       11.3023010877
H           17.5798387795       12.6401920252       11.8131654685
H           17.8974013579       14.1005983539       11.5465800460
O            6.6639927705        9.7992663343       11.4188756446
H            6.1668157436       10.5597866252       11.7287528639
H            6.2096490993        9.0438998196       11.7991298451
O           15.9638223915        1.0426379462       11.9874452038
H           16.8954436150        0.8438222652       12.1064167163
H           15.7284566816        0.6079251663       11.1645066997
O           10.3579734909        0.4700217470       11.2375555084
H            9.9055342739       18.0999930386       10.9330010885
H           11.2083955608        0.1540570439       11.5514800367
O            2.8575314130        2.9829550337       11.8982799315
H            3.2076476019        3.5114517244       12.6191890119
H            3.6350007174        2.6691762637       11.4306429310
O            6.2856639375       18.0552361286       12.0996063138
H            5.7378814072       17.2670077541       12.1147829128
H            6.1303075354        0.0192727828       11.2335923205
O            6.1560373899        3.1156330406       11.9526771955
H            6.6485865943        3.1296849199       11.1287853179
H            5.2379987534        3.2014087505       11.6853803761
O            8.9570320381        3.5456527291       11.5994639706
H            9.2507581117        4.1988346737       10.9601844222
H            9.7270323538        3.3846709385       12.1497224343
O            6.1585906081       12.5624448991       11.5356626809
H            6.0365468282       13.4918742048       11.3286204593
H            7.0762133826       12.4957208913       11.8097363031
O            8.9052732778       10.8129894246       11.7454352341
H            9.1498244847       10.9415839922       10.8260560173
H            8.1558274979       10.2139094320       11.7132764793
O            2.9773200513        8.4269028797       11.7888527763
H            3.7085264636        9.0487211600       11.8055623196
H            3.3782909970        7.5788250922       11.9927801338
O           14.7568653383        5.6620015726       11.4554015111
H           14.6815891068        4.7649017794       11.7887863487
H           13.8491596370        5.9537028770       11.3432377526
O            0.6531111704        9.5559093758       11.6534823147
H            1.2372282512       10.2487214804       11.3365933378
H            0.0829703818        9.3616237300       10.9059580215
O            3.4255235217       16.7768690642       11.7821821784
H            2.7779165940       17.3938879623       12.1307405617
H            4.0504967459       17.3280919231       11.3055672091
