736
Lattice="21.2695839169 0.0000000000 0.0000000000 0.0000000000 18.4200000000 0.0000000000 0.0000000000 0.0000000000 17.3600000000" Properties=species:S:1:pos:R:3 pbc="T T T"
Mg           0.0000000000        0.0000000000        0.0000000000
Al           2.6586979896        1.5350000000        0.0000000000
Al          21.2695839169        3.0700000000        0.0000000000
Al           2.6586979896        4.6050000000        0.0000000000
Al          21.2695839169        6.1400000000        0.0000000000
Mg           2.6586979896        7.6750000000        0.0000000000
Al          21.2695839169        9.2100000000        0.0000000000
Mg           2.6586979896       10.7450000000        0.0000000000
Mg          21.2695839169       12.2800000000        0.0000000000
Mg           2.6586979896       13.8150000000        0.0000000000
Al          21.2695839169       15.3500000000        0.0000000000
Al           2.6586979896       16.8850000000        0.0000000000
Mg           5.3173959792        0.0000000000        0.0000000000
Mg           7.9760939689        1.5350000000        0.0000000000
Mg           5.3173959792        3.0700000000        0.0000000000
Mg           7.9760939689        4.6050000000        0.0000000000
Mg           5.3173959792        6.1400000000        0.0000000000
Mg           7.9760939689        7.6750000000        0.0000000000
Al           5.3173959792        9.2100000000        0.0000000000
Al           7.9760939689       10.7450000000        0.0000000000
Al           5.3173959792       12.2800000000        0.0000000000
Al           7.9760939689       13.8150000000        0.0000000000
Al           5.3173959792       15.3500000000        0.0000000000
Mg           7.9760939689       16.8850000000        0.0000000000
Mg          10.6347919585        0.0000000000        0.0000000000
Mg          13.2934899481        1.5350000000        0.0000000000
Mg          10.6347919585        3.0700000000        0.0000000000
Mg          13.2934899481        4.6050000000        0.0000000000
Al          10.6347919585        6.1400000000        0.0000000000
Mg          13.2934899481        7.6750000000        0.0000000000
Al          10.6347919585        9.2100000000        0.0000000000
Mg          13.2934899481       10.7450000000        0.0000000000
Mg          10.6347919585       12.2800000000        0.0000000000
Mg          13.2934899481       13.8150000000        0.0000000000
Al          10.6347919585       15.3500000000        0.0000000000
Mg          13.2934899481       16.8850000000        0.0000000000
Mg          15.9521879377        0.0000000000        0.0000000000
Mg          18.6108859273        1.5350000000        0.0000000000
Mg          15.9521879377        3.0700000000        0.0000000000
Mg          18.6108859273        4.6050000000        0.0000000000
Mg          15.9521879377        6.1400000000        0.0000000000
Mg          18.6108859273        7.6750000000        0.0000000000
Mg          15.9521879377        9.2100000000        0.0000000000
Al          18.6108859273       10.7450000000        0.0000000000
Mg          15.9521879377       12.2800000000        0.0000000000
Mg          18.6108859273       13.8150000000        0.0000000000
Mg          15.9521879377       15.3500000000        0.0000000000
Mg          18.6108859273       16.8850000000        0.0000000000
O            0.8862326632        1.5350000000        1.0692364877
H            0.8862326632        1.5350000000        2.0392364877
O            3.5449306528        3.0700000000        1.0692364877
H            3.5449306528        3.0700000000        2.0392364877
O            0.8862326632        4.6050000000        1.0692364877
H            0.8862326632        4.6050000000        2.0392364877
O            3.5449306528        6.1400000000        1.0692364877
H            3.5449306528        6.1400000000        2.0392364877
O            0.8862326632        7.6750000000        1.0692364877
H            0.8862326632        7.6750000000        2.0392364877
O            3.5449306528        9.2100000000        1.0692364877
H            3.5449306528        9.2100000000        2.0392364877
O            0.8862326632       10.7450000000        1.0692364877
H            0.8862326632       10.7450000000        2.0392364877
O            3.5449306528       12.2800000000        1.0692364877
H            3.5449306528       12.2800000000        2.0392364877
O            0.8862326632       13.8150000000        1.0692364877
H            0.8862326632       13.8150000000        2.0392364877
O            3.5449306528       15.3500000000        1.0692364877
H            3.5449306528       15.3500000000        2.0392364877
O            0.8862326632       16.8850000000        1.0692364877
H            0.8862326632       16.8850000000        2.0392364877
O            3.5449306528        0.0000000000        1.0692364877
H            3.5449306528        0.0000000000        2.0392364877
O            6.2036286424        1.5350000000        1.0692364877
H            6.2036286424        1.5350000000        2.0392364877
O            8.8623266321        3.0700000000        1.0692364877
H            8.8623266321        3.0700000000        2.0392364877
O            6.2036286424        4.6050000000        1.0692364877
H            6.2036286424        4.6050000000        2.0392364877
O            8.8623266321        6.1400000000        1.0692364877
H            8.8623266321        6.1400000000        2.0392364877
O            6.2036286424        7.6750000000        1.0692364877
H            6.2036286424        7.6750000000        2.0392364877
O            8.8623266321        9.2100000000        1.0692364877
H            8.8623266321        9.2100000000        2.0392364877
O            6.2036286424       10.7450000000        1.0692364877
H            6.2036286424       10.7450000000        2.0392364877
O            8.8623266321       12.2800000000        1.0692364877
H            8.8623266321       12.2800000000        2.0392364877
O            6.2036286424       13.8150000000        1.0692364877
H            6.2036286424       13.8150000000        2.0392364877
O            8.8623266321       15.3500000000        1.0692364877
H            8.8623266321       15.3500000000        2.0392364877
O            6.2036286424       16.8850000000        1.0692364877
H            6.2036286424       16.8850000000        2.0392364877
O            8.8623266321        0.0000000000        1.0692364877
H            8.8623266321        0.0000000000        2.0392364877
O           11.5210246217        1.5350000000        1.0692364877
H           11.5210246217        1.5350000000        2.0392364877
O           14.1797226113        3.0700000000        1.0692364877
H           14.1797226113        3.0700000000        2.0392364877
O           11.5210246217        4.6050000000        1.0692364877
H           11.5210246217        4.6050000000        2.0392364877
O           14.1797226113        6.1400000000        1.0692364877
H           14.1797226113        6.1400000000        2.0392364877
O           11.5210246217        7.6750000000        1.0692364877
H           11.5210246217        7.6750000000        2.0392364877
O           14.1797226113        9.2100000000        1.0692364877
H           14.1797226113        9.2100000000        2.0392364877
O           11.5210246217       10.7450000000        1.0692364877
H           11.5210246217       10.7450000000        2.0392364877
O           14.1797226113       12.2800000000        1.0692364877
H           14.1797226113       12.2800000000        2.0392364877
O           11.5210246217       13.8150000000        1.0692364877
H           11.5210246217       13.8150000000        2.0392364877
O           14.1797226113       15.3500000000        1.0692364877
H           14.1797226113       15.3500000000        2.0392364877
O           11.5210246217       16.8850000000        1.0692364877
H           11.5210246217       16.8850000000        2.0392364877
O           14.1797226113        0.0000000000        1.0692364877
H           14.1797226113        0.0000000000        2.0392364877
O           16.8384206009        1.5350000000        1.0692364877
H           16.8384206009        1.5350000000        2.0392364877
O           19.4971185905        3.0700000000        1.0692364877
H           19.4971185905        3.0700000000        2.0392364877
O           16.8384206009        4.6050000000        1.0692364877
H           16.8384206009        4.6050000000        2.0392364877
O           19.4971185905        6.1400000000        1.0692364877
H           19.4971185905        6.1400000000        2.0392364877
O           16.8384206009        7.6750000000        1.0692364877
H           16.8384206009        7.6750000000        2.0392364877
O           19.4971185905        9.2100000000        1.0692364877
H           19.4971185905        9.2100000000        2.0392364877
O           16.8384206009       10.7450000000        1.0692364877
H           16.8384206009       10.7450000000        2.0392364877
O           19.4971185905       12.2800000000        1.0692364877
H           19.4971185905       12.2800000000        2.0392364877
O           16.8384206009       13.8150000000        1.0692364877
H           16.8384206009       13.8150000000        2.0392364877
O           19.4971185905       15.3500000000        1.0692364877
H           19.4971185905       15.3500000000        2.0392364877
O           16.8384206009       16.8850000000        1.0692364877
H           16.8384206009       16.8850000000        2.0392364877
O           19.4971185905        0.0000000000        1.0692364877
H           19.4971185905        0.0000000000        2.0392364877
O            1.7724653264        0.0000000000       16.2907635123
H            1.7724653264        0.0000000000       15.3207635123
O            4.4311633160        1.5350000000       16.2907635123
H            4.4311633160        1.5350000000       15.3207635123
O            1.7724653264        3.0700000000       16.2907635123
H            1.7724653264        3.0700000000       15.3207635123
O            4.4311633160        4.6050000000       16.2907635123
H            4.4311633160        4.6050000000       15.3207635123
O            1.7724653264        6.1400000000       16.2907635123
H            1.7724653264        6.1400000000       15.3207635123
O            4.4311633160        7.6750000000       16.2907635123
H            4.4311633160        7.6750000000       15.3207635123
O            1.7724653264        9.2100000000       16.2907635123
H            1.7724653264        9.2100000000       15.3207635123
O            4.4311633160       10.7450000000       16.2907635123
H            4.4311633160       10.7450000000       15.3207635123
O            1.7724653264       12.2800000000       16.2907635123
H            1.7724653264       12.2800000000       15.3207635123
O            4.4311633160       13.8150000000       16.2907635123
H            4.4311633160       13.8150000000       15.3207635123
O            1.7724653264       15.3500000000       16.2907635123
H            1.7724653264       15.3500000000       15.3207635123
O            4.4311633160       16.8850000000       16.2907635123
H            4.4311633160       16.8850000000       15.3207635123
O            7.0898613056        0.0000000000       16.2907635123
H            7.0898613056        0.0000000000       15.3207635123
O            9.7485592953        1.5350000000       16.2907635123
H            9.7485592953        1.5350000000       15.3207635123
O            7.0898613056        3.0700000000       16.2907635123
H            7.0898613056        3.0700000000       15.3207635123
O            9.7485592953        4.6050000000       16.2907635123
H            9.7485592953        4.6050000000       15.3207635123
O            7.0898613056        6.1400000000       16.2907635123
H            7.0898613056        6.1400000000       15.3207635123
O            9.7485592953        7.6750000000       16.2907635123
H            9.7485592953        7.6750000000       15.3207635123
O            7.0898613056        9.2100000000       16.2907635123
H            7.0898613056        9.2100000000       15.3207635123
O            9.7485592953       10.7450000000       16.2907635123
H            9.7485592953       10.7450000000       15.3207635123
O            7.0898613056       12.2800000000       16.2907635123
H            7.0898613056       12.2800000000       15.3207635123
O            9.7485592953       13.8150000000       16.2907635123
H            9.7485592953       13.8150000000       15.3207635123
O            7.0898613056       15.3500000000       16.2907635123
H            7.0898613056       15.3500000000       15.3207635123
O            9.7485592953       16.8850000000       16.2907635123
H            9.7485592953       16.8850000000       15.3207635123
O           12.4072572849        0.0000000000       16.2907635123
H           12.4072572849        0.0000000000       15.3207635123
O           15.0659552745        1.5350000000       16.2907635123
H           15.0659552745        1.5350000000       15.3207635123
O           12.4072572849        3.0700000000       16.2907635123
H           12.4072572849        3.0700000000       15.3207635123
O           15.0659552745        4.6050000000       16.2907635123
H           15.0659552745        4.6050000000       15.3207635123
O           12.4072572849        6.1400000000       16.2907635123
H           12.4072572849        6.1400000000       15.3207635123
O           15.0659552745        7.6750000000       16.2907635123
H           15.0659552745        7.6750000000       15.3207635123
O           12.4072572849        9.2100000000       16.2907635123
H           12.4072572849        9.2100000000       15.3207635123
O           15.0659552745       10.7450000000       16.2907635123
H           15.0659552745       10.7450000000       15.3207635123
O           12.4072572849       12.2800000000       16.2907635123
H           12.4072572849       12.2800000000       15.3207635123
O           15.0659552745       13.8150000000       16.2907635123
H           15.0659552745       13.8150000000       15.3207635123
O           12.4072572849       15.3500000000       16.2907635123
H           12.4072572849       15.3500000000       15.3207635123
O           15.0659552745       16.8850000000       16.2907635123
H           15.0659552745       16.8850000000       15.3207635123
O           17.7246532641        0.0000000000       16.2907635123
H           17.7246532641        0.0000000000       15.3207635123
O           20.3833512537        1.5350000000       16.2907635123
H           20.3833512537        1.5350000000       15.3207635123
O           17.7246532641        3.0700000000       16.2907635123
H           17.7246532641        3.0700000000       15.3207635123
O           20.3833512537        4.6050000000       16.2907635123
H           20.3833512537        4.6050000000       15.3207635123
O           17.7246532641        6.1400000000       16.2907635123
H           17.7246532641        6.1400000000       15.3207635123
O           20.3833512537        7.6750000000       16.2907635123
H           20.3833512537        7.6750000000       15.3207635123
O           17.7246532641        9.2100000000       16.2907635123
H           17.7246532641        9.2100000000       15.3207635123
O           20.3833512537       10.7450000000       16.2907635123
H           20.3833512537       10.7450000000       15.3207635123
O           17.7246532641       12.2800000000       16.2907635123
H           17.7246532641       12.2800000000       15.3207635123
O           20.3833512537       13.8150000000       16.2907635123
H           20.3833512537       13.8150000000       15.3207635123
O           17.7246532641       15.3500000000       16.2907635123
H           17.7246532641       15.3500000000       15.3207635123
O           20.3833512537       16.8850000000       16.2907635123
H           20.3833512537       16.8850000000       15.3207635123
Mg          21.2695839169       18.4200000000        8.6800000000
Al           2.6586979896        1.5350000000        8.6800000000
Mg          21.2695839169        3.0700000000        8.6800000000
Mg           2.6586979896        4.6050000000        8.6800000000
Mg          21.2695839169        6.1400000000        8.6800000000
Al           2.6586979896        7.6750000000        8.6800000000
Mg          21.2695839169        9.2100000000        8.6800000000
Al           2.6586979896       10.7450000000        8.6800000000
Mg          21.2695839169       12.2800000000        8.6800000000
Mg           2.6586979896       13.8150000000        8.6800000000
Al          21.2695839169       15.3500000000        8.6800000000
Al           2.6586979896       16.8850000000        8.6800000000
Mg           5.3173959792       18.4200000000        8.6800000000
Al           7.9760939689        1.5350000000        8.6800000000
Mg           5.3173959792        3.0700000000        8.6800000000
Mg           7.9760939689        4.6050000000        8.6800000000
Al           5.3173959792        6.1400000000        8.6800000000
Mg           7.9760939689        7.6750000000        8.6800000000
Mg           5.3173959792        9.2100000000        8.6800000000
Mg           7.9760939689       10.7450000000        8.6800000000
Al           5.3173959792       12.2800000000        8.6800000000
Mg           7.9760939689       13.8150000000        8.6800000000
Mg           5.3173959792       15.3500000000        8.6800000000
Al           7.9760939689       16.8850000000        8.6800000000
Al          10.6347919585       18.4200000000        8.6800000000
Mg          13.2934899481        1.5350000000        8.6800000000
Mg          10.6347919585        3.0700000000        8.6800000000
Al          13.2934899481        4.6050000000        8.6800000000
Mg          10.6347919585        6.1400000000        8.6800000000
Al          13.2934899481        7.6750000000        8.6800000000
Mg          10.6347919585        9.2100000000        8.6800000000
Mg          13.2934899481       10.7450000000        8.6800000000
Mg          10.6347919585       12.2800000000        8.6800000000
Mg          13.2934899481       13.8150000000        8.6800000000
Al          10.6347919585       15.3500000000        8.6800000000
Mg          13.2934899481       16.8850000000        8.6800000000
Al          15.9521879377       18.4200000000        8.6800000000
Mg          18.6108859273        1.5350000000        8.6800000000
Mg          15.9521879377        3.0700000000        8.6800000000
Al          18.6108859273        4.6050000000        8.6800000000
Mg          15.9521879377        6.1400000000        8.6800000000
Mg          18.6108859273        7.6750000000        8.6800000000
Mg          15.9521879377        9.2100000000        8.6800000000
Mg          18.6108859273       10.7450000000        8.6800000000
Mg          15.9521879377       12.2800000000        8.6800000000
Mg          18.6108859273       13.8150000000        8.6800000000
Al          15.9521879377       15.3500000000        8.6800000000
Mg          18.6108859273       16.8850000000        8.6800000000
O            0.8862326632        1.5350000000        9.7492364877
H            0.8862326632        1.5350000000       10.7192364877
O            3.5449306528        3.0700000000        9.7492364877
H            3.5449306528        3.0700000000       10.7192364877
O            0.8862326632        4.6050000000        9.7492364877
H            0.8862326632        4.6050000000       10.7192364877
O            3.5449306528        6.1400000000        9.7492364877
H            3.5449306528        6.1400000000       10.7192364877
O            0.8862326632        7.6750000000        9.7492364877
H            0.8862326632        7.6750000000       10.7192364877
O            3.5449306528        9.2100000000        9.7492364877
H            3.5449306528        9.2100000000       10.7192364877
O            0.8862326632       10.7450000000        9.7492364877
H            0.8862326632       10.7450000000       10.7192364877
O            3.5449306528       12.2800000000        9.7492364877
H            3.5449306528       12.2800000000       10.7192364877
O            0.8862326632       13.8150000000        9.7492364877
H            0.8862326632       13.8150000000       10.7192364877
O            3.5449306528       15.3500000000        9.7492364877
H            3.5449306528       15.3500000000       10.7192364877
O            0.8862326632       16.8850000000        9.7492364877
H            0.8862326632       16.8850000000       10.7192364877
O            3.5449306528        0.0000000000        9.7492364877
H            3.5449306528        0.0000000000       10.7192364877
O            6.2036286424        1.5350000000        9.7492364877
H            6.2036286424        1.5350000000       10.7192364877
O            8.8623266321        3.0700000000        9.7492364877
H            8.8623266321        3.0700000000       10.7192364877
O            6.2036286424        4.6050000000        9.7492364877
H            6.2036286424        4.6050000000       10.7192364877
O            8.8623266321        6.1400000000        9.7492364877
H            8.8623266321        6.1400000000       10.7192364877
O            6.2036286424        7.6750000000        9.7492364877
H            6.2036286424        7.6750000000       10.7192364877
O            8.8623266321        9.2100000000        9.7492364877
H            8.8623266321        9.2100000000       10.7192364877
O            6.2036286424       10.7450000000        9.7492364877
H            6.2036286424       10.7450000000       10.7192364877
O            8.8623266321       12.2800000000        9.7492364877
H            8.8623266321       12.2800000000       10.7192364877
O            6.2036286424       13.8150000000        9.7492364877
H            6.2036286424       13.8150000000       10.7192364877
O            8.8623266321       15.3500000000        9.7492364877
H            8.8623266321       15.3500000000       10.7192364877
O            6.2036286424       16.8850000000        9.7492364877
H            6.2036286424       16.8850000000       10.7192364877
O            8.8623266321        0.0000000000        9.7492364877
H            8.8623266321        0.0000000000       10.7192364877
O           11.5210246217        1.5350000000        9.7492364877
H           11.5210246217        1.5350000000       10.7192364877
O           14.1797226113        3.0700000000        9.7492364877
H           14.1797226113        3.0700000000       10.7192364877
O           11.5210246217        4.6050000000        9.7492364877
H           11.5210246217        4.6050000000       10.7192364877
O           14.1797226113        6.1400000000        9.7492364877
H           14.1797226113        6.1400000000       10.7192364877
O           11.5210246217        7.6750000000        9.7492364877
H           11.5210246217        7.6750000000       10.7192364877
O           14.1797226113        9.2100000000        9.7492364877
H           14.1797226113        9.2100000000       10.7192364877
O           11.5210246217       10.7450000000        9.7492364877
H           11.5210246217       10.7450000000       10.7192364877
O           14.1797226113       12.2800000000        9.7492364877
H           14.1797226113       12.2800000000       10.7192364877
O           11.5210246217       13.8150000000        9.7492364877
H           11.5210246217       13.8150000000       10.7192364877
O           14.1797226113       15.3500000000        9.7492364877
H           14.1797226113       15.3500000000       10.7192364877
O           11.5210246217       16.8850000000        9.7492364877
H           11.5210246217       16.8850000000       10.7192364877
O           14.1797226113        0.0000000000        9.7492364877
H           14.1797226113        0.0000000000       10.7192364877
O           16.8384206009        1.5350000000        9.7492364877
H           16.8384206009        1.5350000000       10.7192364877
O           19.4971185905        3.0700000000        9.7492364877
H           19.4971185905        3.0700000000       10.7192364877
O           16.8384206009        4.6050000000        9.7492364877
H           16.8384206009        4.6050000000       10.7192364877
O           19.4971185905        6.1400000000        9.7492364877
H           19.4971185905        6.1400000000       10.7192364877
O           16.8384206009        7.6750000000        9.7492364877
H           16.8384206009        7.6750000000       10.7192364877
O           19.4971185905        9.2100000000        9.7492364877
H           19.4971185905        9.2100000000       10.7192364877
O           16.8384206009       10.7450000000        9.7492364877
H           16.8384206009       10.7450000000       10.7192364877
O           19.4971185905       12.2800000000        9.7492364877
H           19.4971185905       12.2800000000       10.7192364877
O           16.8384206009       13.8150000000        9.7492364877
H           16.8384206009       13.8150000000       10.7192364877
O           19.4971185905       15.3500000000        9.7492364877
H           19.4971185905       15.3500000000       10.7192364877
O           16.8384206009       16.8850000000        9.7492364877
H           16.8384206009       16.8850000000       10.7192364877
O           19.4971185905        0.0000000000        9.7492364877
H           19.4971185905        0.0000000000       10.7192364877
O            1.7724653264       18.4200000000        7.6107635123
H            1.7724653264       18.4200000000        6.6407635123
O            4.4311633160        1.5350000000        7.6107635123
H            4.4311633160        1.5350000000        6.6407635123
O            1.7724653264        3.0700000000        7.6107635123
H            1.7724653264        3.0700000000        6.6407635123
O            4.4311633160        4.6050000000        7.6107635123
H            4.4311633160        4.6050000000        6.6407635123
O            1.7724653264        6.1400000000        7.6107635123
H            1.7724653264        6.1400000000        6.6407635123
O            4.4311633160        7.6750000000        7.6107635123
H            4.4311633160        7.6750000000        6.6407635123
O            1.7724653264        9.2100000000        7.6107635123
H            1.7724653264        9.2100000000        6.6407635123
O            4.4311633160       10.7450000000        7.6107635123
H            4.4311633160       10.7450000000        6.6407635123
O            1.7724653264       12.2800000000        7.6107635123
H            1.7724653264       12.2800000000        6.6407635123
O            4.4311633160       13.8150000000        7.6107635123
H            4.4311633160       13.8150000000        6.6407635123
O            1.7724653264       15.3500000000        7.6107635123
H            1.7724653264       15.3500000000        6.6407635123
O            4.4311633160       16.8850000000        7.6107635123
H            4.4311633160       16.8850000000        6.6407635123
O            7.0898613056       18.4200000000        7.6107635123
H            7.0898613056       18.4200000000        6.6407635123
O            9.7485592953        1.5350000000        7.6107635123
H            9.7485592953        1.5350000000        6.6407635123
O            7.0898613056        3.0700000000        7.6107635123
H            7.0898613056        3.0700000000        6.6407635123
O            9.7485592953        4.6050000000        7.6107635123
H            9.7485592953        4.6050000000        6.6407635123
O            7.0898613056        6.1400000000        7.6107635123
H            7.0898613056        6.1400000000        6.6407635123
O            9.7485592953        7.6750000000        7.6107635123
H            9.7485592953        7.6750000000        6.6407635123
O            7.0898613056        9.2100000000        7.6107635123
H            7.0898613056        9.2100000000        6.6407635123
O            9.7485592953       10.7450000000        7.6107635123
H            9.7485592953       10.7450000000        6.6407635123
O            7.0898613056       12.2800000000        7.6107635123
H            7.0898613056       12.2800000000        6.6407635123
O            9.7485592953       13.8150000000        7.6107635123
H            9.7485592953       13.8150000000        6.6407635123
O            7.0898613056       15.3500000000        7.6107635123
H            7.0898613056       15.3500000000        6.6407635123
O            9.7485592953       16.8850000000        7.6107635123
H            9.7485592953       16.8850000000        6.6407635123
O           12.4072572849       18.4200000000        7.6107635123
H           12.4072572849       18.4200000000        6.6407635123
O           15.0659552745        1.5350000000        7.6107635123
H           15.0659552745        1.5350000000        6.6407635123
O           12.4072572849        3.0700000000        7.6107635123
H           12.4072572849        3.0700000000        6.6407635123
O           15.0659552745        4.6050000000        7.6107635123
H           15.0659552745        4.6050000000        6.6407635123
O           12.4072572849        6.1400000000        7.6107635123
H           12.4072572849        6.1400000000        6.6407635123
O           15.0659552745        7.6750000000        7.6107635123
H           15.0659552745        7.6750000000        6.6407635123
O           12.4072572849        9.2100000000        7.6107635123
H           12.4072572849        9.2100000000        6.6407635123
O           15.0659552745       10.7450000000        7.6107635123
H           15.0659552745       10.7450000000        6.6407635123
O           12.4072572849       12.2800000000        7.6107635123
H           12.4072572849       12.2800000000        6.6407635123
O           15.0659552745       13.8150000000        7.6107635123
H           15.0659552745       13.8150000000        6.6407635123
O           12.4072572849       15.3500000000        7.6107635123
H           12.4072572849       15.3500000000        6.6407635123
O           15.0659552745       16.8850000000        7.6107635123
H           15.0659552745       16.8850000000        6.6407635123
O           17.7246532641       18.4200000000        7.6107635123
H           17.7246532641       18.4200000000        6.6407635123
O           20.3833512537        1.5350000000        7.6107635123
H           20.3833512537        1.5350000000        6.6407635123
O           17.7246532641        3.0700000000        7.6107635123
H           17.7246532641        3.0700000000        6.6407635123
O           20.3833512537        4.6050000000        7.6107635123
H           20.3833512537        4.6050000000        6.6407635123
O           17.7246532641        6.1400000000        7.6107635123
H           17.7246532641        6.1400000000        6.6407635123
O           20.3833512537        7.6750000000        7.6107635123
H           20.3833512537        7.6750000000        6.6407635123
O           17.7246532641        9.2100000000        7.6107635123
H           17.7246532641        9.2100000000        6.6407635123
O           20.3833512537       10.7450000000        7.6107635123
H           20.3833512537       10.7450000000        6.6407635123
O           17.7246532641       12.2800000000        7.6107635123
H           17.7246532641       12.2800000000        6.6407635123
O           20.3833512537       13.8150000000        7.6107635123
H           20.3833512537       13.8150000000        6.6407635123
O           17.7246532641       15.3500000000        7.6107635123
H           17.7246532641       15.3500000000        6.6407635123
O           20.3833512537       16.8850000000        7.6107635123
H           20.3833512537       16.8850000000        6.6407635123
C            9.5842966771       14.8762353434        3.6263928651
O           10.1577436251       15.9764505049        3.9796423465
O            8.2973983440       14.7874254175        3.6366630808
O           10.2977480623       13.8648301077        3.2628731679
C           14.6470227957       17.6686322117        3.9619615678
O           13.6117711998        0.0179287416        3.9387886899
O           14.5393655718       16.4316466084        3.6121379844
O           15.7899316156       18.1363212850        4.3349580292
C            2.8036187534       11.3279637442        3.9234440593
O            2.4887411417       12.5650353992        3.7374176903
O            1.8841888957       10.4232009725        3.9358159521
O            4.0379262228       10.9956548609        4.0970985354
C           14.4946599018        6.6347404445        3.7746063688
O           14.4164919680        7.9176426712        3.6643718428
O           13.4197382292        5.9216353833        3.7857674392
O           15.6477495082        6.0649432788        3.8736798244
C            1.9472312260        1.5605688781        3.8235990167
O            2.8225147554        2.5081398311        3.8142164819
O            0.6889579525        1.8448303813        3.8302146862
O            2.3302209700        0.3287364217        3.8263658822
C           20.3171826890       12.8847909397        3.6546762223
O            0.0349620736       13.7138546002        3.6978868400
O           19.1208175752       13.3171488919        3.4404867835
O           20.5261845013       11.6233693269        3.8256550433
C            4.4229519276       16.1293527425        3.6623201123
O            5.0875784372       17.2347731743        3.6418928860
O            3.1332561126       16.1523686083        3.6782880366
O            5.0480212331       15.0009164447        3.6667794142
C            8.7263678868        6.2432148391        3.6832101298
O            9.2946018619        5.0955399066        3.5281217715
O            9.4256369368        7.2658073966        4.0429701289
O            7.4588648616        6.3682972141        3.4785384889
O            6.2319832358        2.9629439403        3.9834714238
H            6.1595658041        2.0213482418        4.1559627456
H            5.6690980471        3.3724112038        4.6446044093
O           19.2804921721        1.8441534513        5.0073206990
H           18.4860426146        1.4383895851        5.3620115299
H           19.0068052460        2.7294840944        4.7565516442
O           19.3855055440        5.5620123933        5.1357554759
H           19.1121418484        6.4820061437        5.1137602705
H           19.8286318932        5.4227779287        4.2956050116
O           17.3263917308       13.2602457240        5.1293595021
H           16.7207347393       13.1139053974        4.3990416825
H           17.7756077627       14.0794427408        4.9086306997
O           17.6243440010        7.9509812411        4.9319374041
H           18.1742620980        7.8360336560        5.7103827389
H           17.7849399614        7.1641696099        4.4058799980
O           20.3584538945        8.5356651955        3.3156451029
H           20.8291589851        7.7030916804        3.2328316998
H           19.9672272326        8.5044897261        4.1917557061
O            8.6295300490       12.0518350150        3.6475387511
H            7.8586890074       11.8927976523        4.1971851882
H            9.1507776527       11.2495570151        3.7266016793
O           18.3278886775       10.4927509589        4.9429912668
H           18.3430595972       10.4660461825        5.9024998379
H           18.2312627204        9.5749811349        4.6784880067
O            8.1300474083        0.5224720942        3.7351991409
H            7.6466724477        1.0099843287        3.0641697312
H            7.8376527603       18.0341776385        3.6298115148
O           12.1735417393        1.4618140082        5.4963665936
H           13.0637581247        1.5387932482        5.8473494760
H           12.1068386190        2.1708401410        4.8526021672
O           13.2356402348       10.9617917400        3.8824101751
H           12.4763671636       11.2274993705        3.3584790170
H           13.5095977972       11.7641424435        4.3327218478
O           12.6481559215       14.6331742204        4.8622706371
H           11.7883657027       14.3488165356        5.1808636170
H           12.4714528797       15.0094048687        3.9969229993
O           14.8705254669        3.1213351541        3.4473765998
H           15.0959776227        2.4488994078        4.0943707979
H           14.4065760741        3.7938835850        3.9513900609
O            5.1596585274        5.2120885201        3.7854329749
H            5.4179229829        5.8417912274        4.4624661878
H            4.2327175010        5.0357007525        3.9622596952
O           10.3813837586        9.9712357455        3.9705332519
H            9.8670549721        9.4697613457        3.3336742992
H           11.0927677731        9.3788746037        4.2247793172
O           20.5817779353       17.6732182878        3.9932008199
H           20.3827487617        0.1000390330        4.3992574828
H            0.1050617712       17.8347820282        3.4766179280
O           10.9363100329        5.4285787211        5.4412404399
H           10.8945461524        6.3848809381        5.5143283879
H           11.0169520684        5.2628114758        4.4991055862
O           15.7142534585       11.8735910369        3.3883510501
H           14.9072189882       11.4055768967        3.1619484698
H           15.9239321418       12.3848262237        2.6033202013
O            0.9339457053        5.0410891573        3.6141192627
H            1.3017705836        4.9023833330        4.4899420491
H            0.0540960069        5.3896069236        3.7753640291
O           18.2271071105        3.4344092667        3.3432225169
H           18.5424772994        4.2428945442        2.9327432848
H           17.2910309230        3.4069101408        3.1320231579
O            1.0191730949        7.3255619773        5.1032558192
H            1.7206119145        7.9801821567        5.0707596199
H            0.3036350284        7.7145518178        4.5950312828
O           15.4444198362        9.7144197305        5.2312487148
H           15.9491704440        9.1707150710        5.8405204664
H           15.6830085805        9.3856180106        4.3614413568
O            5.9118931887       12.2955019740        3.1407172093
H            6.8592581411       12.3238165922        2.9880806165
H            5.8069032867       12.5758512074        4.0528473688
O            4.0249420122        7.5641551528        3.5955931023
H            3.9846111527        8.4929306574        3.8350706251
H            4.7387278285        7.2088459044        4.1302566848
O            8.9824555127        2.8274477873        5.4037368072
H            8.6647919392        3.4941053026        4.7903383957
H            9.9346343963        2.8225989741        5.2815408064
O           18.1730569266       17.1960610573        4.8684764066
H           17.3416971885       17.5004697554        5.2396587476
H           18.2493155471       16.2858861625        5.1640542873
O            3.4908839179        6.1389713638        5.5933194279
H            2.7700956860        5.5617525212        5.3308642272
H            3.1572279753        7.0257271871        5.4386009037
O           10.7919848138       11.9944602304        5.7773003422
H           10.7264301820       11.0834527021        5.4817197719
H            9.8986329322       12.3372313271        5.6996447505
O            6.0796624378        7.7623913033        5.5237672839
H            6.5000215804        8.3183167783        4.8635816604
H            6.4102627429        6.8799058599        5.3406747377
O            6.5169276517       10.3077879491        5.3872130405
H            5.8092314221       10.1508340188        6.0166028325
H            6.2884211618       11.1425538522        4.9718208510
O           17.2808930888       15.3220185060        3.3931920974
H           16.4092247658       15.7234731360        3.4182622911
H           17.7416911281       15.7914184629        2.6939576251
O            0.8778713527       15.5954411012        5.2691992409
H            0.6854984808       15.4414774852        4.3413588004
H            0.0279440003       15.5128021749        5.7078269915
C            1.3456174748        6.3677239265       13.3676195604
O            1.1163997186        5.1007779413       13.4476638663
O            2.5596020597        6.8035045567       13.3467229136
O            0.3608506460        7.1988892815       13.3084719012
C           11.8906026625       16.1658444468       13.3446539944
O           12.9829996235       15.5274777842       13.0931447827
O           11.9222350378       17.4364352939       13.5653308899
O           10.7665733262       15.5336202624       13.3754863107
C           12.4704314252        3.8729888464       13.5320176125
O           12.9753573055        2.6992757450       13.3544017044
O           13.2220574771        4.9179996585       13.4476927596
O           11.2138794930        4.0016911359       13.7939583735
C           18.5581739963        3.0431655170       12.6008105508
O           18.2395591042        1.8129576642       12.3790602647
O           19.7954757000        3.3696783437       12.7638254826
O           17.6394871847        3.9468605432       12.6595459051
C            7.6291969922        2.9783414937       13.3485142795
O            8.5203993882        2.0551854898       13.4813347675
O            7.9311741646        4.2072214531       13.5990413891
O            6.4360174238        2.6726175381       12.9651666819
C           18.8247494950       11.8028172776       13.4002522760
O           17.6346028659       11.3965465108       13.1128587039
O           19.7616662921       10.9456307325       13.6272283586
O           19.0779793269       13.0662745896       13.4606697654
C            3.1821704822        1.8469457301       12.0748359476
O            4.3947711705        1.4264195677       11.9450002149
O            2.9568285136        3.0705398505       12.4156268303
O            2.1949117625        1.0438777721       11.8638807977
C           17.1733927959       16.8826726510       13.3572391212
O           16.9080144764       15.6204562572       13.3352363334
O           18.3993454750       17.2838957550       13.3698901922
O           16.2128184364       17.7436659409       13.3665908381
O            5.8933502728       17.8434022640       12.2831480737
H            6.8229170388       18.0773560289       12.2305052817
H            5.4514434019        0.2443834888       12.5118578151
O           10.6986034340        6.1262046032       11.9904950417
H           10.5686263720        5.9415780134       11.0574253842
H           11.5999132046        6.4517082178       12.0478369486
O            7.6826664439        8.1336924658       12.3986162676
H            8.2941380526        8.6834963667       12.8940132219
H            7.2522731125        8.7399068539       11.7912731224
O           20.9090328134       17.5455703960       13.4848628699
H            0.3161966990       17.8285395737       14.1041696244
H           20.9339050635       16.5866598161       13.5232278413
O           15.4986264206        6.2273986859       14.0262195878
H           16.3534899890        5.8050697758       13.9146553865
H           15.4940686944        6.9357185965       13.3782518946
O           10.1954319514        0.6214796505       12.3132975395
H           10.7054995962       18.3535373505       11.8795160397
H            9.9372823615        0.2356510551       13.1535921808
O           14.9633607061       10.3439445870       13.8059379952
H           15.3698819425       10.3960434566       12.9378215329
H           14.4525777824       11.1532946363       13.8811264423
O            5.5436930641       12.3620547830       13.6833750369
H            6.0984093961       13.1096884260       13.9177544876
H            5.6724495535       12.2541945278       12.7381830290
O           12.7188110000        8.1531868896       13.5696477370
H           12.4960782438        9.0830666174       13.6551685604
H           12.0190044592        7.7876390398       13.0235290916
O            3.9567284107       10.2915952563       12.6832159780
H            3.7785984672       11.1918722369       12.9649447153
H            3.3137964908        9.7595725145       13.1577582296
O            1.0528849819       10.4371798159       12.6718192083
H            0.2943615963       10.9072745426       12.3179078897
H            1.0248020174       10.6114252260       13.6154557295
O            1.6086615381        1.5200899515       14.2476494308
H            0.7333796980        1.6128536478       13.8644046041
H            2.1379579490        2.1855335649       13.8019700541
O           11.3794669103       10.5524730462       12.2836149894
H           10.5022467269       10.9314891293       12.1917914709
H           11.2234429294        9.6582249268       12.5959878729
O           19.2777731053        8.0880041760       12.4665904806
H           18.7516236321        8.7923276714       12.0809803852
H           19.7373921887        8.5047981019       13.1991429508
O            1.1614395332       14.5640074296       13.6422456689
H            1.3095626923       13.6987412470       13.2536919880
H            1.9548913132       15.0613952029       13.4309646336
O           15.0486512784        1.7836280689       12.1720351033
H           15.2732713100        0.9392431643       11.7743417864
H           14.1218844647        1.6993174057       12.4078209918
O           15.6472213495       12.8025171442       13.3910436113
H           16.3387107109       12.9578549362       12.7435000735
H           15.8713101513       11.9555494605       13.7835101089
O            3.0573998424       16.6795132802       13.4815793759
H            2.7537458221       16.6981286660       14.3920999432
H            2.6656592037       17.4593391634       13.0815657964
O           16.1071543405        8.3363318225       12.0909599626
H           15.9113817688        8.6063831899       12.9911518084
H           15.3223892472        7.8623929963       11.8061341609
O            7.8996631901       14.3467789185       13.5845270388
H            8.2614285856       15.1032153448       14.0519986759
H            8.6336777619       14.0124129342       13.0639293084
O           13.2377744320       12.9184920533       12.1699721982
H           12.9907975494       12.2490607069       12.8122058722
H           13.2928626488       13.7308177533       12.6785901742
O            7.9852400903       11.0975026416       11.8053510030
H            7.5125753190       11.8959513075       11.5590427773
H            7.4318417203       10.6871393379       12.4738958429
O            5.2525999565        7.4195689808       12.4954460162
H            4.6331315852        7.8332005892       13.1010596137
H            4.7324523508        6.7570615942       12.0348698217
O            3.2749644744       13.3765847585       12.6621645778
H            2.6747828659       13.9568645723       12.1881842254
H            4.0372975989       13.9265675582       12.8570161299
O            5.5169531839       15.5184410411       13.5885870687
H            6.0125079688       15.0326098728       12.9252669867
H            5.1721218509       16.2818705475       13.1196875694
O            9.8851301123       13.3973353785       12.1561675980
H           10.2012342963       13.0104600242       11.3364081180
H           10.3158560590       14.2541957442       12.1993587156
O            8.3175079811       16.4852439523       12.1730828257
H            8.7172746740       17.1888001432       11.6565605341
H            9.0595400500       16.0435194292       12.5924488405
O           15.4061906105        3.7605576581       13.9966623954
H           14.9069175453        3.7276788970       13.1773667263
H           15.6989949763        2.8570017890       14.1361342374
O            8.9087186187       12.0200751167       14.2744086884
H            8.2220019466       11.3593780888       14.1582206963
H            8.4351491049       12.8185600807       14.5188543426
O            6.1370554698        9.7588498384       13.7240205233
H            5.3468410540       10.3038131785       13.7372921143
H            5.8915942110        8.9922394317       13.2008979232
O            4.3062728668        5.1066221545       13.6504259354
H            5.2391398356        5.1190105173       13.4241390666
H            4.1108725732        6.0088111837       13.9140045400
O            9.9123452467        8.4527966282       13.9382153507
H           10.2029683623        9.3008515055       14.2816409318
H           10.0737230290        8.5079743478       12.9934864845
