88
Lattice="6.7350000000 0.0000000000 0.0000000000 -4.0491455000 6.1759732609 0.0000000000 0.0000000000 0.0000000000 22.4870000000" Properties=species:S:1:pos:R:3 pbc="T T T"
Ca           0.0329783276        2.6729612273        4.6226525900
Ca           3.4004783276        2.6729612273       15.8661525900
Ca           0.0329783276        2.6729612273       17.8643474100
Ca           3.4004783276        2.6729612273        6.6208474100
Ca           1.3140250326        5.6991881252        6.5994847600
Ca          -2.0534749674        5.6991881252       17.8429847600
Ca           1.3140250326        5.6991881252       15.8875152400
Ca          -2.0534749674        5.6991881252        4.6440152400
Si           3.5420235079        2.3851608734        3.5390040600
Si           0.1745235079        2.3851608734       14.7825040600
Si           3.5420235079        2.3851608734       18.9479959400
Si           0.1745235079        2.3851608734        7.7044959400
Si           3.0706830239        4.6511254628        1.6003997900
Si          -0.2968169761        4.6511254628       12.8438997900
Si           3.0706830239        4.6511254628       20.8866002100
Si          -0.2968169761        4.6511254628        9.6431002100
Si           1.1867556086        5.9888412711        3.5468745100
Si          -2.1807443914        5.9888412711       14.7903745100
Si           1.1867556086        5.9888412711       18.9401254900
Si          -2.1807443914        5.9888412711        7.6966254900
O            3.1442222915        3.1244248727        2.1182754000
O           -0.2232777085        3.1244248727       13.3617754000
O            3.1442222915        3.1244248727       20.3687246000
O           -0.2232777085        3.1244248727        9.1252246000
O            4.3911171010        1.0993232404        2.9840249000
O            1.0236171010        1.0993232404       14.2275249000
O            4.3911171010        1.0993232404       19.5029751000
O            1.0236171010        1.0993232404        8.2594751000
O            4.4599887810        3.3158800438        4.4569234000
O            1.0924887810        3.3158800438       15.7004234000
O            4.4599887810        3.3158800438       18.0300766000
O            1.0924887810        3.3158800438        6.7865766000
O            2.2552117333        1.8917006098        4.3669754000
O           -1.1122882667        1.8917006098       15.6104754000
O            2.2552117333        1.8917006098       18.1200246000
O           -1.1122882667        1.8917006098        6.8765246000
O            3.0004274570        4.6072760527        0.0000000000
O           -0.3670725430        4.6072760527       11.2435000000
O           -2.3497069315        5.5151441220        2.1137780000
O            1.0177930685        5.5151441220       13.3572780000
O           -2.3497069315        5.5151441220       20.3732220000
O            1.0177930685        5.5151441220        9.1297220000
O            0.0611208530        2.6803723952        2.1115293000
O            3.4286208530        2.6803723952       13.3550293000
O            0.0611208530        2.6803723952       20.3754707000
O            3.4286208530        2.6803723952        9.1319707000
O            1.7032799554        5.3119546017        2.1385137000
O           -1.6642200446        5.3119546017       13.3820137000
O            1.7032799554        5.3119546017       20.3484863000
O           -1.6642200446        5.3119546017        9.1049863000
O            0.2385479995        5.0087143146        4.3849650000
O           -3.1289520005        5.0087143146       15.6284650000
O            0.2385479995        5.0087143146       18.1020350000
O           -3.1289520005        5.0087143146        6.8585350000
O            6.4615892215        0.2834771727        4.4636695000
O            3.0940892215        0.2834771727       15.7071695000
O            6.4615892215        0.2834771727       18.0233305000
O            3.0940892215        0.2834771727        6.7798305000
O            1.9890821355        1.3525381441        0.0000000000
O            5.3565821355        1.3525381441       11.2435000000
O            4.9604175165        1.4637056628        0.0000000000
O            1.5929175165        1.4637056628       11.2435000000
O           -0.3971464000        4.9407786087        0.0000000000
O            2.9703536000        4.9407786087       11.2435000000
H            0.4777492985        2.0433320872        1.5265503394
H           -0.3423349568        3.3208816391        1.5211300131
H            3.8572131157        2.0511727410       12.7702075601
H            3.0132012260        3.3130409853       12.7644727924
H           -0.3532263000        3.3137570654       20.9660130748
H            0.4886406416        2.0504566609       20.9603065727
H            3.0138592088        3.3134806261        9.7225185359
H            3.8565551328        2.0507331002        9.7168011116
H            2.2841665283        1.7352651662       -0.8294849171
H            2.3107451577        1.9579978783        0.6719757513
H            5.7259031645        1.9766484899       11.8725375615
H            6.0619419713        0.7195444834       11.0905734571
H            4.5090786689        1.9792826152       -0.6723642248
H            4.6127876068        0.5750275139       -0.1049027812
H            1.0976662398        2.1153817139       11.7451418018
H            1.7197613878        0.7349705328       11.8554278900
H           -0.9544315614        5.3256247739        0.6803871530
H           -0.9017052728        5.0430818641       -0.8102804377
H            3.6266152142        4.9557640872       10.5430029414
H            3.4589495045        5.1759822550       12.0356826096
H            1.8867422655        0.0496659452        1.4805212902
H            1.6127681958        5.6743563284       12.6079075500
H           -2.0685639532        6.1233458103       21.0746129980
H            1.7232776938        5.4548927619        9.7927161305
