352
Lattice="11.2647745308 0.0000000000 0.0000000000 0.0000000000 14.7700000000 0.0000000000 0.0000000000 0.0000000000 22.4870000000" Properties=species:S:1:pos:R:3 pbc="T T T"
O            5.0353542153        2.2081150000        0.0000000000
O            2.4050293623        0.0406175000        0.0000000000
O            2.3768674260        4.3497650000        0.0000000000
O            5.0353542153        9.5931150000        0.0000000000
O            2.4050293623        7.4256175000        0.0000000000
O            4.9508684063        5.8895375000        0.0000000000
O            2.3768674260       11.7347650000        0.0000000000
O            4.9508684063       13.2745375000        0.0000000000
O            8.0092546914        0.6572650000        0.0000000000
O           10.6677414807        5.9006150000        0.0000000000
O            8.0374166277        3.7331175000        0.0000000000
O           10.5832556717        2.1970375000        0.0000000000
O            8.0092546914        8.0422650000        0.0000000000
O           10.6677414807       13.2856150000        0.0000000000
O            8.0374166277       11.1181175000        0.0000000000
O           10.5832556717        9.5820375000        0.0000000000
H            3.0060011683        0.3706166341        0.6719757513
H            3.0060011683        7.7556166341        0.6719757513
H            8.6383884337        4.0631166341        0.6719757513
H            8.6383884337       11.4481166341        0.6719757513
H            2.1218261071        4.9771506588        0.6803871530
H            2.1218261071       12.3621506588        0.6803871530
H            7.7542133725        1.2846506588        0.6803871530
H            7.7542133725        8.6696506588        0.6803871530
H            1.6050879395        6.3921195727        1.4805212902
H            1.6050879395       13.7771195727        1.4805212902
H            7.2374752049        2.6996195727        1.4805212902
H            7.2374752049       10.0846195727        1.4805212902
H            1.5345269353        2.9649767260        1.5211300131
H            1.5345269353       10.3499767260        1.5211300131
H            7.1669142007        6.6574767260        1.5211300131
H            7.1669142007       14.0424767260        1.5211300131
H            1.5198802749        1.4469324146        1.5265503394
H            1.5198802749        8.8319324146        1.5265503394
H            7.1522675403        5.1394324146        1.5265503394
H            7.1522675403       12.5244324146        1.5265503394
Si           5.1181503081        2.2062687500        1.6003997900
Si           5.1181503081        9.5912687500        1.6003997900
Si          10.7505375735        5.8987687500        1.6003997900
Si          10.7505375735       13.2837687500        1.6003997900
O            1.5207445617        2.2081150000        2.1115293000
O            1.5207445617        9.5931150000        2.1115293000
O            7.1531318271        5.9006150000        2.1115293000
O            7.1531318271       13.2856150000        2.1115293000
O            1.0588888059        5.9006150000        2.1137780000
O            1.0588888059       13.2856150000        2.1137780000
O            6.6912760713        2.2081150000        2.1137780000
O            6.6912760713        9.5931150000        2.1137780000
O            4.3425705816        0.8891540000        2.1182754000
O            4.3425705816        8.2741540000        2.1182754000
O            9.9749578470        4.5816540000        2.1182754000
O            9.9749578470       11.9666540000        2.1182754000
O            4.3369381944        3.5086135000        2.1385137000
O            4.3369381944       10.8936135000        2.1385137000
O            9.9693254598        7.2011135000        2.1385137000
O            9.9693254598       14.5861135000        2.1385137000
O            4.2749819344        5.8969225000        2.9840249000
O            4.2749819344       13.2819225000        2.9840249000
O            9.9073691998        2.2044225000        2.9840249000
O            9.9073691998        9.5894225000        2.9840249000
Si           4.2699127859        0.0528027500        3.5390040600
Si           4.2699127859        7.4378027500        3.5390040600
Si           9.9023000513        3.7453027500        3.5390040600
Si           9.9023000513       11.1303027500        3.5390040600
Si           4.2761084119        4.3578885000        3.5468745100
Si           4.2761084119       11.7428885000        3.5468745100
Si           9.9084956773        0.6653885000        3.5468745100
Si           9.9084956773        8.0503885000        3.5468745100
O            2.9232089907        0.3456180000        4.3669754000
O            2.9232089907        7.7306180000        4.3669754000
O            8.5555962561        4.0381180000        4.3669754000
O            8.5555962561       11.4231180000        4.3669754000
O            2.9457385398        4.0580575000        4.3849650000
O            2.9457385398       11.4430575000        4.3849650000
O            8.5781258052        0.3655575000        4.3849650000
O            8.5781258052        7.7505575000        4.3849650000
O            5.5479014564        0.3278940000        4.4569234000
O            5.5479014564        7.7128940000        4.4569234000
O           11.1802887218        4.0203940000        4.4569234000
O           11.1802887218       11.4053940000        4.4569234000
O            5.5591662310        4.0794740000        4.4636695000
O            5.5591662310       11.4644740000        4.4636695000
O           11.1915534964        0.3869740000        4.4636695000
O           11.1915534964        7.7719740000        4.4636695000
Ca           1.4931458641        2.2173462500        4.6226525900
Ca           1.4931458641        9.6023462500        4.6226525900
Ca           7.1255331295        5.9098462500        4.6226525900
Ca           7.1255331295       13.2948462500        4.6226525900
Ca           1.4075335776        5.8921222500        4.6440152400
Ca           1.4075335776       13.2771222500        4.6440152400
Ca           7.0399208430        2.1996222500        4.6440152400
Ca           7.0399208430        9.5846222500        4.6440152400
Ca           4.2237272103        4.0458722500        6.5994847600
Ca           4.2237272103       11.4308722500        6.5994847600
Ca           9.8561144757        0.3533722500        6.5994847600
Ca           9.8561144757        7.7383722500        6.5994847600
Ca           4.3093394968        0.3710962500        6.6208474100
Ca           4.3093394968        7.7560962500        6.6208474100
Ca           9.9417267622        4.0635962500        6.6208474100
Ca           9.9417267622       11.4485962500        6.6208474100
O            2.7429725983        5.9257240000        6.7798305000
O            2.7429725983       13.3107240000        6.7798305000
O            8.3753598637        2.2332240000        6.7798305000
O            8.3753598637        9.6182240000        6.7798305000
O            2.7317078237        2.1741440000        6.7865766000
O            2.7317078237        9.5591440000        6.7865766000
O            8.3640950891        5.8666440000        6.7865766000
O            8.3640950891       13.2516440000        6.7865766000
O            0.1295449071        5.9043075000        6.8585350000
O            0.1295449071       13.2893075000        6.8585350000
O            5.7619321725        2.2118075000        6.8585350000
O            5.7619321725        9.5968075000        6.8585350000
O            0.1070153580        2.1918680000        6.8765246000
O            0.1070153580        9.5768680000        6.8765246000
O            5.7394026234        5.8843680000        6.8765246000
O            5.7394026234       13.2693680000        6.8765246000
Si           1.4599147792        6.2041385000        7.6966254900
Si           1.4599147792       13.5891385000        7.6966254900
Si           7.0923020446        2.5116385000        7.6966254900
Si           7.0923020446        9.8966385000        7.6966254900
Si           1.4537191532        1.8990527500        7.7044959400
Si           1.4537191532        9.2840527500        7.7044959400
Si           7.0861064186        5.5915527500        7.7044959400
Si           7.0861064186       12.9765527500        7.7044959400
O            1.4587883017        0.3581725000        8.2594751000
O            1.4587883017        7.7431725000        8.2594751000
O            7.0911755671        4.0506725000        8.2594751000
O            7.0911755671       11.4356725000        8.2594751000
O            1.5207445617        5.3548635000        9.1049863000
O            1.5207445617       12.7398635000        9.1049863000
O            7.1531318271        1.6623635000        9.1049863000
O            7.1531318271        9.0473635000        9.1049863000
O            1.5263769489        2.7354040000        9.1252246000
O            1.5263769489       10.1204040000        9.1252246000
O            7.1587642143        6.4279040000        9.1252246000
O            7.1587642143       13.8129040000        9.1252246000
O            3.8750824386        4.0543650000        9.1297220000
O            3.8750824386       11.4393650000        9.1297220000
O            9.5074697040        0.3618650000        9.1297220000
O            9.5074697040        7.7468650000        9.1297220000
O            4.3369381944        0.3618650000        9.1319707000
O            4.3369381944        7.7468650000        9.1319707000
O            9.9693254598        4.0543650000        9.1319707000
O            9.9693254598       11.4393650000        9.1319707000
Si           2.3019566754        4.0525187500        9.6431002100
Si           2.3019566754       11.4375187500        9.6431002100
Si           7.9343439408        0.3600187500        9.6431002100
Si           7.9343439408        7.7450187500        9.6431002100
H            4.3495867457        6.9856734785        9.7168011116
H            4.3495867457       -0.3993265215        9.7168011116
H            9.9819740111        3.2931734785        9.7168011116
H            9.9819740111       10.6781734785        9.7168011116
H            4.3372077299        1.1187356622        9.7225185359
H            4.3372077299        8.5037356622        9.7225185359
H            9.9695949953        4.8112356622        9.7225185359
H            9.9695949953       12.1962356622        9.7225185359
H            4.4320340517        3.6171903837        9.7927161305
H            4.4320340517       11.0021903837        9.7927161305
H           10.0644213171        7.3096903837        9.7927161305
H           10.0644213171       14.6946903837        9.7927161305
H            0.1177127328        5.8487485578       10.5430029414
H            0.1177127328       13.2337485578       10.5430029414
H            5.7500999982        2.1562485578       10.5430029414
H            5.7500999982        9.5412485578       10.5430029414
H            5.4640395223        4.6632706314       11.0905734571
H            5.4640395223       12.0482706314       11.0905734571
H           11.0964267877        0.9707706314       11.0905734571
H           11.0964267877        8.3557706314       11.0905734571
O            2.2191605826        4.0543650000       11.2435000000
O            2.1346747736        0.3507875000       11.2435000000
O            5.1930610587        2.5035150000       11.2435000000
O            2.2191605826       11.4393650000       11.2435000000
O            5.2212229950        5.5793675000       11.2435000000
O            2.1346747736        7.7357875000       11.2435000000
O            5.1930610587        9.8885150000       11.2435000000
O            5.2212229950       12.9643675000       11.2435000000
O            7.8515478480        0.3618650000       11.2435000000
O            7.8515478480        7.7468650000       11.2435000000
O           10.8536102604        1.8868675000       11.2435000000
O            7.7670620390        4.0432875000       11.2435000000
O           -0.4393262067        6.1960150000       11.2435000000
O           10.8536102604        9.2718675000       11.2435000000
O            7.7670620390       11.4282875000       11.2435000000
O           -0.4393262067       13.5810150000       11.2435000000
H            2.0778125538        1.1673155082       11.7451418018
H            2.0778125538        8.5523155082       11.7451418018
H            7.7101998192        4.8598155082       11.7451418018
H            7.7101998192       12.2448155082       11.7451418018
H            1.8411920089        7.0567954817       11.8554278900
H            1.8411920089       -0.3282045183       11.8554278900
H            7.4735792743        3.3642954817       11.8554278900
H            7.4735792743       10.7492954817       11.8554278900
H           11.5046638018        2.2063355864       11.8725375615
H           11.5046638018        9.5913355864       11.8725375615
H            5.8722765364        5.8988355864       11.8725375615
H            5.8722765364       13.2838355864       11.8725375615
H            0.0982403513        6.1248430550       12.0356826096
H            0.0982403513       13.5098430550       12.0356826096
H            5.7306276168        2.4323430550       12.0356826096
H            5.7306276168        9.8173430550       12.0356826096
H            4.4599468760        3.8613175988       12.6079075500
H            4.4599468760       11.2463175988       12.6079075500
H           10.0923341414        0.1688175988       12.6079075500
H           10.0923341414        7.5538175988       12.6079075500
H            4.3364164159        1.1187287284       12.7644727924
H            4.3364164159        8.5037287284       12.7644727924
H            9.9688036813        4.8112287284       12.7644727924
H            9.9688036813       12.1962287284       12.7644727924
H            4.3503780597        6.9856804123       12.7702075601
H            4.3503780597       -0.3993195877       12.7702075601
H            9.9827653251        3.2931804123       12.7702075601
H            9.9827653251       10.6781804123       12.7702075601
Si           2.3019566754        4.0525187500       12.8438997900
Si           2.3019566754       11.4375187500       12.8438997900
Si           7.9343439408        0.3600187500       12.8438997900
Si           7.9343439408        7.7450187500       12.8438997900
O            4.3369381944        0.3618650000       13.3550293000
O            4.3369381944        7.7468650000       13.3550293000
O            9.9693254598        4.0543650000       13.3550293000
O            9.9693254598       11.4393650000       13.3550293000
O            3.8750824386        4.0543650000       13.3572780000
O            3.8750824386       11.4393650000       13.3572780000
O            9.5074697040        0.3618650000       13.3572780000
O            9.5074697040        7.7468650000       13.3572780000
O            1.5263769489        2.7354040000       13.3617754000
O            1.5263769489       10.1204040000       13.3617754000
O            7.1587642143        6.4279040000       13.3617754000
O            7.1587642143       13.8129040000       13.3617754000
O            1.5207445617        5.3548635000       13.3820137000
O            1.5207445617       12.7398635000       13.3820137000
O            7.1531318271        1.6623635000       13.3820137000
O            7.1531318271        9.0473635000       13.3820137000
O            1.4587883017        0.3581725000       14.2275249000
O            1.4587883017        7.7431725000       14.2275249000
O            7.0911755671        4.0506725000       14.2275249000
O            7.0911755671       11.4356725000       14.2275249000
Si           1.4537191532        1.8990527500       14.7825040600
Si           1.4537191532        9.2840527500       14.7825040600
Si           7.0861064186        5.5915527500       14.7825040600
Si           7.0861064186       12.9765527500       14.7825040600
Si           1.4599147792        6.2041385000       14.7903745100
Si           1.4599147792       13.5891385000       14.7903745100
Si           7.0923020446        2.5116385000       14.7903745100
Si           7.0923020446        9.8966385000       14.7903745100
O            0.1070153580        2.1918680000       15.6104754000
O            0.1070153580        9.5768680000       15.6104754000
O            5.7394026234        5.8843680000       15.6104754000
O            5.7394026234       13.2693680000       15.6104754000
O            0.1295449071        5.9043075000       15.6284650000
O            0.1295449071       13.2893075000       15.6284650000
O            5.7619321725        2.2118075000       15.6284650000
O            5.7619321725        9.5968075000       15.6284650000
O            2.7317078237        2.1741440000       15.7004234000
O            2.7317078237        9.5591440000       15.7004234000
O            8.3640950891        5.8666440000       15.7004234000
O            8.3640950891       13.2516440000       15.7004234000
O            2.7429725983        5.9257240000       15.7071695000
O            2.7429725983       13.3107240000       15.7071695000
O            8.3753598637        2.2332240000       15.7071695000
O            8.3753598637        9.6182240000       15.7071695000
Ca           4.3093394968        0.3710962500       15.8661525900
Ca           4.3093394968        7.7560962500       15.8661525900
Ca           9.9417267622        4.0635962500       15.8661525900
Ca           9.9417267622       11.4485962500       15.8661525900
Ca           4.2237272103        4.0458722500       15.8875152400
Ca           4.2237272103       11.4308722500       15.8875152400
Ca           9.8561144757        0.3533722500       15.8875152400
Ca           9.8561144757        7.7383722500       15.8875152400
Ca           1.4075335776        5.8921222500       17.8429847600
Ca           1.4075335776       13.2771222500       17.8429847600
Ca           7.0399208430        2.1996222500       17.8429847600
Ca           7.0399208430        9.5846222500       17.8429847600
Ca           1.4931458641        2.2173462500       17.8643474100
Ca           1.4931458641        9.6023462500       17.8643474100
Ca           7.1255331295        5.9098462500       17.8643474100
Ca           7.1255331295       13.2948462500       17.8643474100
O            5.5591662310        4.0794740000       18.0233305000
O            5.5591662310       11.4644740000       18.0233305000
O           11.1915534964        0.3869740000       18.0233305000
O           11.1915534964        7.7719740000       18.0233305000
O            5.5479014564        0.3278940000       18.0300766000
O            5.5479014564        7.7128940000       18.0300766000
O           11.1802887218        4.0203940000       18.0300766000
O           11.1802887218       11.4053940000       18.0300766000
O            2.9457385398        4.0580575000       18.1020350000
O            2.9457385398       11.4430575000       18.1020350000
O            8.5781258052        0.3655575000       18.1020350000
O            8.5781258052        7.7505575000       18.1020350000
O            2.9232089907        0.3456180000       18.1200246000
O            2.9232089907        7.7306180000       18.1200246000
O            8.5555962561        4.0381180000       18.1200246000
O            8.5555962561       11.4231180000       18.1200246000
Si           4.2761084119        4.3578885000       18.9401254900
Si           4.2761084119       11.7428885000       18.9401254900
Si           9.9084956773        0.6653885000       18.9401254900
Si           9.9084956773        8.0503885000       18.9401254900
Si           4.2699127859        0.0528027500       18.9479959400
Si           4.2699127859        7.4378027500       18.9479959400
Si           9.9023000513        3.7453027500       18.9479959400
Si           9.9023000513       11.1303027500       18.9479959400
O            4.2749819344        5.8969225000       19.5029751000
O            4.2749819344       13.2819225000       19.5029751000
O            9.9073691998        2.2044225000       19.5029751000
O            9.9073691998        9.5894225000       19.5029751000
O            4.3369381944        3.5086135000       20.3484863000
O            4.3369381944       10.8936135000       20.3484863000
O            9.9693254598        7.2011135000       20.3484863000
O            9.9693254598       14.5861135000       20.3484863000
O            4.3425705816        0.8891540000       20.3687246000
O            4.3425705816        8.2741540000       20.3687246000
O            9.9749578470        4.5816540000       20.3687246000
O            9.9749578470       11.9666540000       20.3687246000
O            1.0588888059        5.9006150000       20.3732220000
O            1.0588888059       13.2856150000       20.3732220000
O            6.6912760713        2.2081150000       20.3732220000
O            6.6912760713        9.5931150000       20.3732220000
O            1.5207445617        2.2081150000       20.3754707000
O            1.5207445617        9.5931150000       20.3754707000
O            7.1531318271        5.9006150000       20.3754707000
O            7.1531318271       13.2856150000       20.3754707000
Si           5.1181503081        2.2062687500       20.8866002100
Si           5.1181503081        9.5912687500       20.8866002100
Si          10.7505375735        5.8987687500       20.8866002100
Si          10.7505375735       13.2837687500       20.8866002100
H            1.5328949099        1.4469195363       20.9603065727
H            1.5328949099        8.8319195363       20.9603065727
H            7.1652821753        5.1394195363       20.9603065727
H            7.1652821753       12.5244195363       20.9603065727
H            1.5215123003        2.9649896044       20.9660130748
H            1.5215123003       10.3499896044       20.9660130748
H            7.1538995657        6.6574896044       20.9660130748
H            7.1538995657       14.0424896044       20.9660130748
H            1.6274776549        6.2551225926       21.0746129980
H            1.6274776549       13.6401225926       21.0746129980
H            7.2598649203        2.5626225926       21.0746129980
H            7.2598649203        9.9476225926       21.0746129980
H            2.8616509902        0.1989147004       -0.8294849171
H            2.8616509902        7.5839147004       -0.8294849171
H            8.4940382556        3.8914147004       -0.8294849171
H            8.4940382556       11.2764147004       -0.8294849171
H            2.0110040078        4.7119494524       -0.8102804377
H            2.0110040078       12.0969494524       -0.8102804377
H            7.6433912732        1.0194494524       -0.8102804377
H            7.6433912732        8.4044494524       -0.8102804377
H            4.8561073287        6.5681691134       -0.6723642248
H            4.8561073287       13.9531691134       -0.6723642248
H           10.4884945941        2.8756691134       -0.6723642248
H           10.4884945941       10.2606691134       -0.6723642248
H            4.1728941124        5.3369161847       -0.1049027812
H            4.1728941124       12.7219161847       -0.1049027812
H            9.8052813778        1.6444161847       -0.1049027812
H            9.8052813778        9.0294161847       -0.1049027812
